Cs8 Mo4 Br24                            
   1.0000000000000000     
    10.5005074305123713   -0.0000000000000001    0.0000000000000007
     0.0000000000000016   10.5005074305123713    0.0000000000000007
    -0.0000000000000000   -0.0000000000000000   10.5005074305123713
   Cs   Ti   Cl
     8     4    24
Direct
  0.2500000000000000  0.2500000000000000  0.2500000000000000
  0.7500000000000000  0.2500000000000000  0.2500000000000000
  0.2500000000000000  0.7500000000000000  0.7500000000000000
  0.7500000000000000  0.7500000000000000  0.7500000000000000
  0.7500000000000000  0.2500000000000000  0.7500000000000000
  0.2500000000000000  0.2500000000000000  0.7500000000000000
  0.7500000000000000  0.7500000000000000  0.2500000000000000
  0.2500000000000000  0.7500000000000000  0.2500000000000000
  0.0000000000000000  0.0000000000000000 -0.0000000000000000
  0.0000000000000000  0.5000000000000000  0.5000000000000000
  0.5000000000000000  0.0000000000000000  0.5000000000000000
  0.5000000000000000  0.5000000000000000 -0.0000000000000000
  0.2228014893663973  0.0000000000000000 -0.0000000000000000
  0.7771985106336027  0.0000000000000000 -0.0000000000000000
  0.5000000000000000  0.2228014893663973  0.5000000000000000
  0.5000000000000000  0.2771985106336026 -0.0000000000000000
  0.5000000000000000  0.0000000000000000  0.7228014893663973
  0.5000000000000000  0.0000000000000000  0.2771985106336026
  0.2228014893663973  0.5000000000000000  0.5000000000000000
  0.7771985106336027  0.5000000000000000  0.5000000000000000
  0.5000000000000000  0.7228014893663973 -0.0000000000000000
  0.5000000000000000  0.7771985106336027  0.5000000000000000
  0.5000000000000000  0.5000000000000000  0.2228014893663973
  0.5000000000000000  0.5000000000000000  0.7771985106336027
  0.7228014893663973  0.0000000000000000  0.5000000000000000
  0.2771985106336027  0.0000000000000000  0.5000000000000000
  0.0000000000000000  0.2228014893663973 -0.0000000000000000
 -0.0000000000000000  0.2771985106336026  0.5000000000000000
  0.0000000000000000  0.0000000000000000  0.2228014893663973
 -0.0000000000000000  0.0000000000000000  0.7771985106336027
  0.7228014893663973  0.5000000000000000 -0.0000000000000000
  0.2771985106336026  0.5000000000000000 -0.0000000000000000
  0.0000000000000000  0.7228014893663973  0.5000000000000000
 -0.0000000000000000  0.7771985106336027 -0.0000000000000000
  0.0000000000000000  0.5000000000000000  0.7228014893663973
 -0.0000000000000000  0.5000000000000000  0.2771985106336027

  0.00000000E+00  0.00000000E+00  0.00000000E+00
  0.00000000E+00  0.00000000E+00  0.00000000E+00
  0.00000000E+00  0.00000000E+00  0.00000000E+00
  0.00000000E+00  0.00000000E+00  0.00000000E+00
  0.00000000E+00  0.00000000E+00  0.00000000E+00
  0.00000000E+00  0.00000000E+00  0.00000000E+00
  0.00000000E+00  0.00000000E+00  0.00000000E+00
  0.00000000E+00  0.00000000E+00  0.00000000E+00
  0.00000000E+00  0.00000000E+00  0.00000000E+00
  0.00000000E+00  0.00000000E+00  0.00000000E+00
  0.00000000E+00  0.00000000E+00  0.00000000E+00
  0.00000000E+00  0.00000000E+00  0.00000000E+00
  0.00000000E+00  0.00000000E+00  0.00000000E+00
  0.00000000E+00  0.00000000E+00  0.00000000E+00
  0.00000000E+00  0.00000000E+00  0.00000000E+00
  0.00000000E+00  0.00000000E+00  0.00000000E+00
  0.00000000E+00  0.00000000E+00  0.00000000E+00
  0.00000000E+00  0.00000000E+00  0.00000000E+00
  0.00000000E+00  0.00000000E+00  0.00000000E+00
  0.00000000E+00  0.00000000E+00  0.00000000E+00
  0.00000000E+00  0.00000000E+00  0.00000000E+00
  0.00000000E+00  0.00000000E+00  0.00000000E+00
  0.00000000E+00  0.00000000E+00  0.00000000E+00
  0.00000000E+00  0.00000000E+00  0.00000000E+00
  0.00000000E+00  0.00000000E+00  0.00000000E+00
  0.00000000E+00  0.00000000E+00  0.00000000E+00
  0.00000000E+00  0.00000000E+00  0.00000000E+00
  0.00000000E+00  0.00000000E+00  0.00000000E+00
  0.00000000E+00  0.00000000E+00  0.00000000E+00
  0.00000000E+00  0.00000000E+00  0.00000000E+00
  0.00000000E+00  0.00000000E+00  0.00000000E+00
  0.00000000E+00  0.00000000E+00  0.00000000E+00
  0.00000000E+00  0.00000000E+00  0.00000000E+00
  0.00000000E+00  0.00000000E+00  0.00000000E+00
  0.00000000E+00  0.00000000E+00  0.00000000E+00
  0.00000000E+00  0.00000000E+00  0.00000000E+00
