Cs8 Mo4 Br24                            
   1.0000000000000000     
    10.4557334738958190   -0.0000000000000001    0.0000000000000007
     0.0000000000000016   10.4557334738958190    0.0000000000000007
    -0.0000000000000000   -0.0000000000000000   10.4557334738958190
   Rb   Te   Cl
     8     4    24
Direct
  0.2500000000000000  0.2500000000000000  0.2500000000000000
  0.7500000000000000  0.2500000000000000  0.2500000000000000
  0.2500000000000000  0.7500000000000000  0.7500000000000000
  0.7500000000000000  0.7500000000000000  0.7500000000000000
  0.7500000000000000  0.2500000000000000  0.7500000000000000
  0.2500000000000000  0.2500000000000000  0.7500000000000000
  0.7500000000000000  0.7500000000000000  0.2500000000000000
  0.2500000000000000  0.7500000000000000  0.2500000000000000
 -0.0000000000000000  0.0000000000000000 -0.0000000000000000
 -0.0000000000000000  0.5000000000000000  0.5000000000000000
  0.5000000000000000  0.0000000000000000  0.5000000000000000
  0.5000000000000000  0.5000000000000000 -0.0000000000000000
  0.2419265133178242  0.0000000000000000 -0.0000000000000000
  0.7580734866821759  0.0000000000000000 -0.0000000000000000
  0.5000000000000000  0.2419265133178242  0.5000000000000000
  0.5000000000000000  0.2580734866821758 -0.0000000000000000
  0.5000000000000000  0.0000000000000000  0.7419265133178241
  0.5000000000000000  0.0000000000000000  0.2580734866821758
  0.2419265133178242  0.5000000000000000  0.5000000000000000
  0.7580734866821759  0.5000000000000000  0.5000000000000000
  0.5000000000000000  0.7419265133178241 -0.0000000000000000
  0.5000000000000000  0.7580734866821759  0.5000000000000000
  0.5000000000000000  0.5000000000000000  0.2419265133178243
  0.5000000000000000  0.5000000000000000  0.7580734866821759
  0.7419265133178241  0.0000000000000000  0.5000000000000000
  0.2580734866821758  0.0000000000000000  0.5000000000000000
 -0.0000000000000000  0.2419265133178242 -0.0000000000000000
 -0.0000000000000000  0.2580734866821758  0.5000000000000000
 -0.0000000000000000  0.0000000000000000  0.2419265133178243
 -0.0000000000000000  0.0000000000000000  0.7580734866821759
  0.7419265133178241  0.5000000000000000 -0.0000000000000000
  0.2580734866821758  0.5000000000000000 -0.0000000000000000
 -0.0000000000000000  0.7419265133178241  0.5000000000000000
 -0.0000000000000000  0.7580734866821759 -0.0000000000000000
 -0.0000000000000000  0.5000000000000000  0.7419265133178241
 -0.0000000000000000  0.5000000000000000  0.2580734866821758

  0.00000000E+00  0.00000000E+00  0.00000000E+00
  0.00000000E+00  0.00000000E+00  0.00000000E+00
  0.00000000E+00  0.00000000E+00  0.00000000E+00
  0.00000000E+00  0.00000000E+00  0.00000000E+00
  0.00000000E+00  0.00000000E+00  0.00000000E+00
  0.00000000E+00  0.00000000E+00  0.00000000E+00
  0.00000000E+00  0.00000000E+00  0.00000000E+00
  0.00000000E+00  0.00000000E+00  0.00000000E+00
  0.00000000E+00  0.00000000E+00  0.00000000E+00
  0.00000000E+00  0.00000000E+00  0.00000000E+00
  0.00000000E+00  0.00000000E+00  0.00000000E+00
  0.00000000E+00  0.00000000E+00  0.00000000E+00
  0.00000000E+00  0.00000000E+00  0.00000000E+00
  0.00000000E+00  0.00000000E+00  0.00000000E+00
  0.00000000E+00  0.00000000E+00  0.00000000E+00
  0.00000000E+00  0.00000000E+00  0.00000000E+00
  0.00000000E+00  0.00000000E+00  0.00000000E+00
  0.00000000E+00  0.00000000E+00  0.00000000E+00
  0.00000000E+00  0.00000000E+00  0.00000000E+00
  0.00000000E+00  0.00000000E+00  0.00000000E+00
  0.00000000E+00  0.00000000E+00  0.00000000E+00
  0.00000000E+00  0.00000000E+00  0.00000000E+00
  0.00000000E+00  0.00000000E+00  0.00000000E+00
  0.00000000E+00  0.00000000E+00  0.00000000E+00
  0.00000000E+00  0.00000000E+00  0.00000000E+00
  0.00000000E+00  0.00000000E+00  0.00000000E+00
  0.00000000E+00  0.00000000E+00  0.00000000E+00
  0.00000000E+00  0.00000000E+00  0.00000000E+00
  0.00000000E+00  0.00000000E+00  0.00000000E+00
  0.00000000E+00  0.00000000E+00  0.00000000E+00
  0.00000000E+00  0.00000000E+00  0.00000000E+00
  0.00000000E+00  0.00000000E+00  0.00000000E+00
  0.00000000E+00  0.00000000E+00  0.00000000E+00
  0.00000000E+00  0.00000000E+00  0.00000000E+00
  0.00000000E+00  0.00000000E+00  0.00000000E+00
  0.00000000E+00  0.00000000E+00  0.00000000E+00
