Cs8 Mo4 Br24                            
   1.0000000000000000     
    11.9694686691517553    0.0000000000000002    0.0000000000000009
     0.0000000000000021   11.9694686691517553    0.0000000000000009
     0.0000000000000001    0.0000000000000001   11.9694686691517553
   Cs   Zr   I 
     8     4    24
Direct
  0.2500000000000000  0.2500000000000000  0.2500000000000000
  0.7500000000000000  0.2500000000000000  0.2500000000000000
  0.2500000000000000  0.7500000000000000  0.7500000000000000
  0.7500000000000000  0.7500000000000000  0.7500000000000000
  0.7500000000000000  0.2500000000000000  0.7500000000000000
  0.2500000000000000  0.2500000000000000  0.7500000000000000
  0.7500000000000000  0.7500000000000000  0.2500000000000000
  0.2500000000000000  0.7500000000000000  0.2500000000000000
  0.0000000000000000 -0.0000000000000000 -0.0000000000000000
  0.0000000000000000  0.5000000000000000  0.5000000000000000
  0.5000000000000000 -0.0000000000000000  0.5000000000000000
  0.5000000000000000  0.5000000000000000 -0.0000000000000000
  0.2391186054964020 -0.0000000000000000 -0.0000000000000000
  0.7608813945035979 -0.0000000000000000 -0.0000000000000000
  0.5000000000000000  0.2391186054964020  0.5000000000000000
  0.5000000000000000  0.2608813945035980 -0.0000000000000000
  0.5000000000000000 -0.0000000000000000  0.7391186054964021
  0.5000000000000000 -0.0000000000000000  0.2608813945035980
  0.2391186054964020  0.5000000000000000  0.5000000000000000
  0.7608813945035979  0.5000000000000000  0.5000000000000000
  0.5000000000000000  0.7391186054964021 -0.0000000000000000
  0.5000000000000000  0.7608813945035979  0.5000000000000000
  0.5000000000000000  0.5000000000000000  0.2391186054964020
  0.5000000000000000  0.5000000000000000  0.7608813945035979
  0.7391186054964021 -0.0000000000000000  0.5000000000000000
  0.2608813945035979 -0.0000000000000000  0.5000000000000000
  0.0000000000000000  0.2391186054964020 -0.0000000000000000
  0.0000000000000000  0.2608813945035979  0.5000000000000000
  0.0000000000000000 -0.0000000000000000  0.2391186054964020
  0.0000000000000000 -0.0000000000000000  0.7608813945035979
  0.7391186054964021  0.5000000000000000 -0.0000000000000000
  0.2608813945035979  0.5000000000000000 -0.0000000000000000
  0.0000000000000000  0.7391186054964021  0.5000000000000000
  0.0000000000000000  0.7608813945035979 -0.0000000000000000
  0.0000000000000000  0.5000000000000000  0.7391186054964021
  0.0000000000000000  0.5000000000000000  0.2608813945035980

  0.00000000E+00  0.00000000E+00  0.00000000E+00
  0.00000000E+00  0.00000000E+00  0.00000000E+00
  0.00000000E+00  0.00000000E+00  0.00000000E+00
  0.00000000E+00  0.00000000E+00  0.00000000E+00
  0.00000000E+00  0.00000000E+00  0.00000000E+00
  0.00000000E+00  0.00000000E+00  0.00000000E+00
  0.00000000E+00  0.00000000E+00  0.00000000E+00
  0.00000000E+00  0.00000000E+00  0.00000000E+00
  0.00000000E+00  0.00000000E+00  0.00000000E+00
  0.00000000E+00  0.00000000E+00  0.00000000E+00
  0.00000000E+00  0.00000000E+00  0.00000000E+00
  0.00000000E+00  0.00000000E+00  0.00000000E+00
  0.00000000E+00  0.00000000E+00  0.00000000E+00
  0.00000000E+00  0.00000000E+00  0.00000000E+00
  0.00000000E+00  0.00000000E+00  0.00000000E+00
  0.00000000E+00  0.00000000E+00  0.00000000E+00
  0.00000000E+00  0.00000000E+00  0.00000000E+00
  0.00000000E+00  0.00000000E+00  0.00000000E+00
  0.00000000E+00  0.00000000E+00  0.00000000E+00
  0.00000000E+00  0.00000000E+00  0.00000000E+00
  0.00000000E+00  0.00000000E+00  0.00000000E+00
  0.00000000E+00  0.00000000E+00  0.00000000E+00
  0.00000000E+00  0.00000000E+00  0.00000000E+00
  0.00000000E+00  0.00000000E+00  0.00000000E+00
  0.00000000E+00  0.00000000E+00  0.00000000E+00
  0.00000000E+00  0.00000000E+00  0.00000000E+00
  0.00000000E+00  0.00000000E+00  0.00000000E+00
  0.00000000E+00  0.00000000E+00  0.00000000E+00
  0.00000000E+00  0.00000000E+00  0.00000000E+00
  0.00000000E+00  0.00000000E+00  0.00000000E+00
  0.00000000E+00  0.00000000E+00  0.00000000E+00
  0.00000000E+00  0.00000000E+00  0.00000000E+00
  0.00000000E+00  0.00000000E+00  0.00000000E+00
  0.00000000E+00  0.00000000E+00  0.00000000E+00
  0.00000000E+00  0.00000000E+00  0.00000000E+00
  0.00000000E+00  0.00000000E+00  0.00000000E+00
