Cs8 Mo4 Br24                            
   1.0000000000000000     
    12.0095774023952995    0.0000000000000002    0.0000000000000009
     0.0000000000000021   12.0095774023952995    0.0000000000000009
     0.0000000000000001    0.0000000000000001   12.0095774023952995
   Cs   Te   I 
     8     4    24
Direct
  0.2500000000000000  0.2500000000000000  0.2500000000000000
  0.7500000000000000  0.2500000000000000  0.2500000000000000
  0.2500000000000000  0.7500000000000000  0.7500000000000000
  0.7500000000000000  0.7500000000000000  0.7500000000000000
  0.7500000000000000  0.2500000000000000  0.7500000000000000
  0.2500000000000000  0.2500000000000000  0.7500000000000000
  0.7500000000000000  0.7500000000000000  0.2500000000000000
  0.2500000000000000  0.7500000000000000  0.2500000000000000
  0.0000000000000000  0.0000000000000000  0.0000000000000000
  0.0000000000000000  0.5000000000000000  0.5000000000000000
  0.5000000000000000  0.0000000000000000  0.5000000000000000
  0.5000000000000000  0.5000000000000000  0.0000000000000000
  0.2438539597665375  0.0000000000000000  0.0000000000000000
  0.7561460402334627 -0.0000000000000000  0.0000000000000000
  0.5000000000000000  0.2438539597665375  0.5000000000000000
  0.5000000000000000  0.2561460402334625  0.0000000000000000
  0.5000000000000000  0.0000000000000000  0.7438539597665373
  0.5000000000000000  0.0000000000000000  0.2561460402334625
  0.2438539597665375  0.5000000000000000  0.5000000000000000
  0.7561460402334627  0.5000000000000000  0.5000000000000000
  0.5000000000000000  0.7438539597665375  0.0000000000000000
  0.5000000000000000  0.7561460402334625  0.5000000000000000
  0.5000000000000000  0.5000000000000000  0.2438539597665375
  0.5000000000000000  0.5000000000000000  0.7561460402334627
  0.7438539597665373  0.0000000000000000  0.5000000000000000
  0.2561460402334625 -0.0000000000000000  0.5000000000000000
  0.0000000000000000  0.2438539597665375  0.0000000000000000
  0.0000000000000000  0.2561460402334625  0.5000000000000000
  0.0000000000000000  0.0000000000000000  0.2438539597665375
  0.0000000000000000  0.0000000000000000  0.7561460402334627
  0.7438539597665373  0.5000000000000000  0.0000000000000000
  0.2561460402334625  0.5000000000000000  0.0000000000000000
  0.0000000000000000  0.7438539597665375  0.5000000000000000
  0.0000000000000000  0.7561460402334625  0.0000000000000000
  0.0000000000000000  0.5000000000000000  0.7438539597665373
  0.0000000000000000  0.5000000000000000  0.2561460402334625

  0.00000000E+00  0.00000000E+00  0.00000000E+00
  0.00000000E+00  0.00000000E+00  0.00000000E+00
  0.00000000E+00  0.00000000E+00  0.00000000E+00
  0.00000000E+00  0.00000000E+00  0.00000000E+00
  0.00000000E+00  0.00000000E+00  0.00000000E+00
  0.00000000E+00  0.00000000E+00  0.00000000E+00
  0.00000000E+00  0.00000000E+00  0.00000000E+00
  0.00000000E+00  0.00000000E+00  0.00000000E+00
  0.00000000E+00  0.00000000E+00  0.00000000E+00
  0.00000000E+00  0.00000000E+00  0.00000000E+00
  0.00000000E+00  0.00000000E+00  0.00000000E+00
  0.00000000E+00  0.00000000E+00  0.00000000E+00
  0.00000000E+00  0.00000000E+00  0.00000000E+00
  0.00000000E+00  0.00000000E+00  0.00000000E+00
  0.00000000E+00  0.00000000E+00  0.00000000E+00
  0.00000000E+00  0.00000000E+00  0.00000000E+00
  0.00000000E+00  0.00000000E+00  0.00000000E+00
  0.00000000E+00  0.00000000E+00  0.00000000E+00
  0.00000000E+00  0.00000000E+00  0.00000000E+00
  0.00000000E+00  0.00000000E+00  0.00000000E+00
  0.00000000E+00  0.00000000E+00  0.00000000E+00
  0.00000000E+00  0.00000000E+00  0.00000000E+00
  0.00000000E+00  0.00000000E+00  0.00000000E+00
  0.00000000E+00  0.00000000E+00  0.00000000E+00
  0.00000000E+00  0.00000000E+00  0.00000000E+00
  0.00000000E+00  0.00000000E+00  0.00000000E+00
  0.00000000E+00  0.00000000E+00  0.00000000E+00
  0.00000000E+00  0.00000000E+00  0.00000000E+00
  0.00000000E+00  0.00000000E+00  0.00000000E+00
  0.00000000E+00  0.00000000E+00  0.00000000E+00
  0.00000000E+00  0.00000000E+00  0.00000000E+00
  0.00000000E+00  0.00000000E+00  0.00000000E+00
  0.00000000E+00  0.00000000E+00  0.00000000E+00
  0.00000000E+00  0.00000000E+00  0.00000000E+00
  0.00000000E+00  0.00000000E+00  0.00000000E+00
  0.00000000E+00  0.00000000E+00  0.00000000E+00
