Cs8 Mo4 Br24                            
   1.0000000000000000     
    10.7525284172089428   -0.0000000000000000    0.0000000000000007
     0.0000000000000017   10.7525284172089428    0.0000000000000007
    -0.0000000000000000   -0.0000000000000000   10.7525284172089428
   Cs   Pb   Cl
     8     4    24
Direct
  0.2500000000000000  0.2500000000000000  0.2500000000000000
  0.7500000000000000  0.2500000000000000  0.2500000000000000
  0.2500000000000000  0.7500000000000000  0.7500000000000000
  0.7500000000000000  0.7500000000000000  0.7500000000000000
  0.7500000000000000  0.2500000000000000  0.7500000000000000
  0.2500000000000000  0.2500000000000000  0.7500000000000000
  0.7500000000000000  0.7500000000000000  0.2500000000000000
  0.2500000000000000  0.7500000000000000  0.2500000000000000
  0.0000000000000000 -0.0000000000000000 -0.0000000000000000
  0.0000000000000000  0.5000000000000000  0.5000000000000000
  0.5000000000000000 -0.0000000000000000  0.5000000000000000
  0.5000000000000000  0.5000000000000000 -0.0000000000000000
  0.2357827980192927 -0.0000000000000000 -0.0000000000000000
  0.7642172019807073 -0.0000000000000000 -0.0000000000000000
  0.5000000000000000  0.2357827980192927  0.5000000000000000
  0.5000000000000000  0.2642172019807073 -0.0000000000000000
  0.5000000000000000 -0.0000000000000000  0.7357827980192927
  0.5000000000000000 -0.0000000000000000  0.2642172019807073
  0.2357827980192927  0.5000000000000000  0.5000000000000000
  0.7642172019807073  0.5000000000000000  0.5000000000000000
  0.5000000000000000  0.7357827980192927 -0.0000000000000000
  0.5000000000000000  0.7642172019807073  0.5000000000000000
  0.5000000000000000  0.5000000000000000  0.2357827980192927
  0.5000000000000000  0.5000000000000000  0.7642172019807073
  0.7357827980192927 -0.0000000000000000  0.5000000000000000
  0.2642172019807073 -0.0000000000000000  0.5000000000000000
  0.0000000000000000  0.2357827980192927 -0.0000000000000000
  0.0000000000000000  0.2642172019807073  0.5000000000000000
  0.0000000000000000 -0.0000000000000000  0.2357827980192927
  0.0000000000000000 -0.0000000000000000  0.7642172019807073
  0.7357827980192927  0.5000000000000000 -0.0000000000000000
  0.2642172019807073  0.5000000000000000 -0.0000000000000000
  0.0000000000000000  0.7357827980192927  0.5000000000000000
  0.0000000000000000  0.7642172019807073 -0.0000000000000000
  0.0000000000000000  0.5000000000000000  0.7357827980192927
  0.0000000000000000  0.5000000000000000  0.2642172019807073

  0.00000000E+00  0.00000000E+00  0.00000000E+00
  0.00000000E+00  0.00000000E+00  0.00000000E+00
  0.00000000E+00  0.00000000E+00  0.00000000E+00
  0.00000000E+00  0.00000000E+00  0.00000000E+00
  0.00000000E+00  0.00000000E+00  0.00000000E+00
  0.00000000E+00  0.00000000E+00  0.00000000E+00
  0.00000000E+00  0.00000000E+00  0.00000000E+00
  0.00000000E+00  0.00000000E+00  0.00000000E+00
  0.00000000E+00  0.00000000E+00  0.00000000E+00
  0.00000000E+00  0.00000000E+00  0.00000000E+00
  0.00000000E+00  0.00000000E+00  0.00000000E+00
  0.00000000E+00  0.00000000E+00  0.00000000E+00
  0.00000000E+00  0.00000000E+00  0.00000000E+00
  0.00000000E+00  0.00000000E+00  0.00000000E+00
  0.00000000E+00  0.00000000E+00  0.00000000E+00
  0.00000000E+00  0.00000000E+00  0.00000000E+00
  0.00000000E+00  0.00000000E+00  0.00000000E+00
  0.00000000E+00  0.00000000E+00  0.00000000E+00
  0.00000000E+00  0.00000000E+00  0.00000000E+00
  0.00000000E+00  0.00000000E+00  0.00000000E+00
  0.00000000E+00  0.00000000E+00  0.00000000E+00
  0.00000000E+00  0.00000000E+00  0.00000000E+00
  0.00000000E+00  0.00000000E+00  0.00000000E+00
  0.00000000E+00  0.00000000E+00  0.00000000E+00
  0.00000000E+00  0.00000000E+00  0.00000000E+00
  0.00000000E+00  0.00000000E+00  0.00000000E+00
  0.00000000E+00  0.00000000E+00  0.00000000E+00
  0.00000000E+00  0.00000000E+00  0.00000000E+00
  0.00000000E+00  0.00000000E+00  0.00000000E+00
  0.00000000E+00  0.00000000E+00  0.00000000E+00
  0.00000000E+00  0.00000000E+00  0.00000000E+00
  0.00000000E+00  0.00000000E+00  0.00000000E+00
  0.00000000E+00  0.00000000E+00  0.00000000E+00
  0.00000000E+00  0.00000000E+00  0.00000000E+00
  0.00000000E+00  0.00000000E+00  0.00000000E+00
  0.00000000E+00  0.00000000E+00  0.00000000E+00
