Cs8 Mo4 Br24                            
   1.0000000000000000     
    10.6785090518071240   -0.0000000000000000    0.0000000000000007
     0.0000000000000017   10.6785090518071240    0.0000000000000007
    -0.0000000000000000   -0.0000000000000000   10.6785090518071240
   Cs   Zr   Cl
     8     4    24
Direct
  0.2500000000000000  0.2500000000000000  0.2500000000000000
  0.7500000000000000  0.2500000000000000  0.2500000000000000
  0.2500000000000000  0.7500000000000000  0.7500000000000000
  0.7500000000000000  0.7500000000000000  0.7500000000000000
  0.7500000000000000  0.2500000000000000  0.7500000000000000
  0.2500000000000000  0.2500000000000000  0.7500000000000000
  0.7500000000000000  0.7500000000000000  0.2500000000000000
  0.2500000000000000  0.7500000000000000  0.2500000000000000
  0.0000000000000000  0.0000000000000000  0.0000000000000000
  0.0000000000000000  0.5000000000000000  0.5000000000000000
  0.5000000000000000  0.0000000000000000  0.5000000000000000
  0.5000000000000000  0.5000000000000000  0.0000000000000000
  0.2312555289068723  0.0000000000000000  0.0000000000000000
  0.7687444710931276 -0.0000000000000000 -0.0000000000000000
  0.5000000000000000  0.2312555289068723  0.5000000000000000
  0.5000000000000000  0.2687444710931277 -0.0000000000000000
  0.5000000000000000  0.0000000000000000  0.7312555289068724
  0.5000000000000000  0.0000000000000000  0.2687444710931277
  0.2312555289068723  0.5000000000000000  0.5000000000000000
  0.7687444710931276  0.5000000000000000  0.5000000000000000
  0.5000000000000000  0.7312555289068724  0.0000000000000000
  0.5000000000000000  0.7687444710931276  0.5000000000000000
  0.5000000000000000  0.5000000000000000  0.2312555289068723
  0.5000000000000000  0.5000000000000000  0.7687444710931276
  0.7312555289068724  0.0000000000000000  0.5000000000000000
  0.2687444710931277 -0.0000000000000000  0.5000000000000000
  0.0000000000000000  0.2312555289068723  0.0000000000000000
  0.0000000000000000  0.2687444710931277  0.5000000000000000
  0.0000000000000000  0.0000000000000000  0.2312555289068723
  0.0000000000000000  0.0000000000000000  0.7687444710931276
  0.7312555289068724  0.5000000000000000  0.0000000000000000
  0.2687444710931277  0.5000000000000000 -0.0000000000000000
  0.0000000000000000  0.7312555289068724  0.5000000000000000
  0.0000000000000000  0.7687444710931276 -0.0000000000000000
  0.0000000000000000  0.5000000000000000  0.7312555289068724
  0.0000000000000000  0.5000000000000000  0.2687444710931277

  0.00000000E+00  0.00000000E+00  0.00000000E+00
  0.00000000E+00  0.00000000E+00  0.00000000E+00
  0.00000000E+00  0.00000000E+00  0.00000000E+00
  0.00000000E+00  0.00000000E+00  0.00000000E+00
  0.00000000E+00  0.00000000E+00  0.00000000E+00
  0.00000000E+00  0.00000000E+00  0.00000000E+00
  0.00000000E+00  0.00000000E+00  0.00000000E+00
  0.00000000E+00  0.00000000E+00  0.00000000E+00
  0.00000000E+00  0.00000000E+00  0.00000000E+00
  0.00000000E+00  0.00000000E+00  0.00000000E+00
  0.00000000E+00  0.00000000E+00  0.00000000E+00
  0.00000000E+00  0.00000000E+00  0.00000000E+00
  0.00000000E+00  0.00000000E+00  0.00000000E+00
  0.00000000E+00  0.00000000E+00  0.00000000E+00
  0.00000000E+00  0.00000000E+00  0.00000000E+00
  0.00000000E+00  0.00000000E+00  0.00000000E+00
  0.00000000E+00  0.00000000E+00  0.00000000E+00
  0.00000000E+00  0.00000000E+00  0.00000000E+00
  0.00000000E+00  0.00000000E+00  0.00000000E+00
  0.00000000E+00  0.00000000E+00  0.00000000E+00
  0.00000000E+00  0.00000000E+00  0.00000000E+00
  0.00000000E+00  0.00000000E+00  0.00000000E+00
  0.00000000E+00  0.00000000E+00  0.00000000E+00
  0.00000000E+00  0.00000000E+00  0.00000000E+00
  0.00000000E+00  0.00000000E+00  0.00000000E+00
  0.00000000E+00  0.00000000E+00  0.00000000E+00
  0.00000000E+00  0.00000000E+00  0.00000000E+00
  0.00000000E+00  0.00000000E+00  0.00000000E+00
  0.00000000E+00  0.00000000E+00  0.00000000E+00
  0.00000000E+00  0.00000000E+00  0.00000000E+00
  0.00000000E+00  0.00000000E+00  0.00000000E+00
  0.00000000E+00  0.00000000E+00  0.00000000E+00
  0.00000000E+00  0.00000000E+00  0.00000000E+00
  0.00000000E+00  0.00000000E+00  0.00000000E+00
  0.00000000E+00  0.00000000E+00  0.00000000E+00
  0.00000000E+00  0.00000000E+00  0.00000000E+00
