Cs8 Mo4 Br24                            
   1.0000000000000000     
    10.6502877382333327   -0.0000000000000000    0.0000000000000007
     0.0000000000000016   10.6502877382333327    0.0000000000000007
    -0.0000000000000000   -0.0000000000000000   10.6502877382333327
   Cs   Hf   Cl
     8     4    24
Direct
  0.2500000000000000  0.2500000000000000  0.2500000000000000
  0.7500000000000000  0.2500000000000000  0.2500000000000000
  0.2500000000000000  0.7500000000000000  0.7500000000000000
  0.7500000000000000  0.7500000000000000  0.7500000000000000
  0.7500000000000000  0.2500000000000000  0.7500000000000000
  0.2500000000000000  0.2500000000000000  0.7500000000000000
  0.7500000000000000  0.7500000000000000  0.2500000000000000
  0.2500000000000000  0.7500000000000000  0.2500000000000000
  0.0000000000000000 -0.0000000000000000  0.0000000000000000
  0.0000000000000000  0.5000000000000000  0.5000000000000000
  0.5000000000000000 -0.0000000000000000  0.5000000000000000
  0.5000000000000000  0.5000000000000000  0.0000000000000000
  0.2295147842397718 -0.0000000000000000  0.0000000000000000
  0.7704852157602282 -0.0000000000000000  0.0000000000000000
  0.5000000000000000  0.2295147842397718  0.5000000000000000
  0.5000000000000000  0.2704852157602282  0.0000000000000000
  0.5000000000000000 -0.0000000000000000  0.7295147842397718
  0.5000000000000000 -0.0000000000000000  0.2704852157602282
  0.2295147842397718  0.5000000000000000  0.5000000000000000
  0.7704852157602282  0.5000000000000000  0.5000000000000000
  0.5000000000000000  0.7295147842397718  0.0000000000000000
  0.5000000000000000  0.7704852157602282  0.5000000000000000
  0.5000000000000000  0.5000000000000000  0.2295147842397718
  0.5000000000000000  0.5000000000000000  0.7704852157602282
  0.7295147842397718 -0.0000000000000000  0.5000000000000000
  0.2704852157602282 -0.0000000000000000  0.5000000000000000
  0.0000000000000000  0.2295147842397718  0.0000000000000000
  0.0000000000000000  0.2704852157602282  0.5000000000000000
  0.0000000000000000 -0.0000000000000000  0.2295147842397718
  0.0000000000000000 -0.0000000000000000  0.7704852157602282
  0.7295147842397718  0.5000000000000000  0.0000000000000000
  0.2704852157602282  0.5000000000000000  0.0000000000000000
  0.0000000000000000  0.7295147842397718  0.5000000000000000
  0.0000000000000000  0.7704852157602282  0.0000000000000000
  0.0000000000000000  0.5000000000000000  0.7295147842397718
  0.0000000000000000  0.5000000000000000  0.2704852157602282

  0.00000000E+00  0.00000000E+00  0.00000000E+00
  0.00000000E+00  0.00000000E+00  0.00000000E+00
  0.00000000E+00  0.00000000E+00  0.00000000E+00
  0.00000000E+00  0.00000000E+00  0.00000000E+00
  0.00000000E+00  0.00000000E+00  0.00000000E+00
  0.00000000E+00  0.00000000E+00  0.00000000E+00
  0.00000000E+00  0.00000000E+00  0.00000000E+00
  0.00000000E+00  0.00000000E+00  0.00000000E+00
  0.00000000E+00  0.00000000E+00  0.00000000E+00
  0.00000000E+00  0.00000000E+00  0.00000000E+00
  0.00000000E+00  0.00000000E+00  0.00000000E+00
  0.00000000E+00  0.00000000E+00  0.00000000E+00
  0.00000000E+00  0.00000000E+00  0.00000000E+00
  0.00000000E+00  0.00000000E+00  0.00000000E+00
  0.00000000E+00  0.00000000E+00  0.00000000E+00
  0.00000000E+00  0.00000000E+00  0.00000000E+00
  0.00000000E+00  0.00000000E+00  0.00000000E+00
  0.00000000E+00  0.00000000E+00  0.00000000E+00
  0.00000000E+00  0.00000000E+00  0.00000000E+00
  0.00000000E+00  0.00000000E+00  0.00000000E+00
  0.00000000E+00  0.00000000E+00  0.00000000E+00
  0.00000000E+00  0.00000000E+00  0.00000000E+00
  0.00000000E+00  0.00000000E+00  0.00000000E+00
  0.00000000E+00  0.00000000E+00  0.00000000E+00
  0.00000000E+00  0.00000000E+00  0.00000000E+00
  0.00000000E+00  0.00000000E+00  0.00000000E+00
  0.00000000E+00  0.00000000E+00  0.00000000E+00
  0.00000000E+00  0.00000000E+00  0.00000000E+00
  0.00000000E+00  0.00000000E+00  0.00000000E+00
  0.00000000E+00  0.00000000E+00  0.00000000E+00
  0.00000000E+00  0.00000000E+00  0.00000000E+00
  0.00000000E+00  0.00000000E+00  0.00000000E+00
  0.00000000E+00  0.00000000E+00  0.00000000E+00
  0.00000000E+00  0.00000000E+00  0.00000000E+00
  0.00000000E+00  0.00000000E+00  0.00000000E+00
  0.00000000E+00  0.00000000E+00  0.00000000E+00
