Cs8 Mo4 Br24                            
   1.0000000000000000     
    10.7516072195663437   -0.0000000000000000    0.0000000000000007
     0.0000000000000017   10.7516072195663437    0.0000000000000007
    -0.0000000000000000   -0.0000000000000000   10.7516072195663437
   Cs   Te   Cl
     8     4    24
Direct
  0.2500000000000000  0.2500000000000000  0.2500000000000000
  0.7500000000000000  0.2500000000000000  0.2500000000000000
  0.2500000000000000  0.7500000000000000  0.7500000000000000
  0.7500000000000000  0.7500000000000000  0.7500000000000000
  0.7500000000000000  0.2500000000000000  0.7500000000000000
  0.2500000000000000  0.2500000000000000  0.7500000000000000
  0.7500000000000000  0.7500000000000000  0.2500000000000000
  0.2500000000000000  0.7500000000000000  0.2500000000000000
 -0.0000000000000000  0.0000000000000000 -0.0000000000000000
 -0.0000000000000000  0.5000000000000000  0.5000000000000000
  0.5000000000000000  0.0000000000000000  0.5000000000000000
  0.5000000000000000  0.5000000000000000 -0.0000000000000000
  0.2357109471022250  0.0000000000000000 -0.0000000000000000
  0.7642890528977750  0.0000000000000000 -0.0000000000000000
  0.5000000000000000  0.2357109471022250  0.5000000000000000
  0.5000000000000000  0.2642890528977749 -0.0000000000000000
  0.5000000000000000  0.0000000000000000  0.7357109471022250
  0.5000000000000000  0.0000000000000000  0.2642890528977749
  0.2357109471022250  0.5000000000000000  0.5000000000000000
  0.7642890528977750  0.5000000000000000  0.5000000000000000
  0.5000000000000000  0.7357109471022250 -0.0000000000000000
  0.5000000000000000  0.7642890528977750  0.5000000000000000
  0.5000000000000000  0.5000000000000000  0.2357109471022250
  0.5000000000000000  0.5000000000000000  0.7642890528977750
  0.7357109471022250  0.0000000000000000  0.5000000000000000
  0.2642890528977749  0.0000000000000000  0.5000000000000000
 -0.0000000000000000  0.2357109471022250 -0.0000000000000000
 -0.0000000000000000  0.2642890528977749  0.5000000000000000
 -0.0000000000000000  0.0000000000000000  0.2357109471022250
 -0.0000000000000000  0.0000000000000000  0.7642890528977750
  0.7357109471022250  0.5000000000000000 -0.0000000000000000
  0.2642890528977749  0.5000000000000000 -0.0000000000000000
 -0.0000000000000000  0.7357109471022250  0.5000000000000000
 -0.0000000000000000  0.7642890528977750 -0.0000000000000000
 -0.0000000000000000  0.5000000000000000  0.7357109471022250
 -0.0000000000000000  0.5000000000000000  0.2642890528977749

  0.00000000E+00  0.00000000E+00  0.00000000E+00
  0.00000000E+00  0.00000000E+00  0.00000000E+00
  0.00000000E+00  0.00000000E+00  0.00000000E+00
  0.00000000E+00  0.00000000E+00  0.00000000E+00
  0.00000000E+00  0.00000000E+00  0.00000000E+00
  0.00000000E+00  0.00000000E+00  0.00000000E+00
  0.00000000E+00  0.00000000E+00  0.00000000E+00
  0.00000000E+00  0.00000000E+00  0.00000000E+00
  0.00000000E+00  0.00000000E+00  0.00000000E+00
  0.00000000E+00  0.00000000E+00  0.00000000E+00
  0.00000000E+00  0.00000000E+00  0.00000000E+00
  0.00000000E+00  0.00000000E+00  0.00000000E+00
  0.00000000E+00  0.00000000E+00  0.00000000E+00
  0.00000000E+00  0.00000000E+00  0.00000000E+00
  0.00000000E+00  0.00000000E+00  0.00000000E+00
  0.00000000E+00  0.00000000E+00  0.00000000E+00
  0.00000000E+00  0.00000000E+00  0.00000000E+00
  0.00000000E+00  0.00000000E+00  0.00000000E+00
  0.00000000E+00  0.00000000E+00  0.00000000E+00
  0.00000000E+00  0.00000000E+00  0.00000000E+00
  0.00000000E+00  0.00000000E+00  0.00000000E+00
  0.00000000E+00  0.00000000E+00  0.00000000E+00
  0.00000000E+00  0.00000000E+00  0.00000000E+00
  0.00000000E+00  0.00000000E+00  0.00000000E+00
  0.00000000E+00  0.00000000E+00  0.00000000E+00
  0.00000000E+00  0.00000000E+00  0.00000000E+00
  0.00000000E+00  0.00000000E+00  0.00000000E+00
  0.00000000E+00  0.00000000E+00  0.00000000E+00
  0.00000000E+00  0.00000000E+00  0.00000000E+00
  0.00000000E+00  0.00000000E+00  0.00000000E+00
  0.00000000E+00  0.00000000E+00  0.00000000E+00
  0.00000000E+00  0.00000000E+00  0.00000000E+00
  0.00000000E+00  0.00000000E+00  0.00000000E+00
  0.00000000E+00  0.00000000E+00  0.00000000E+00
  0.00000000E+00  0.00000000E+00  0.00000000E+00
  0.00000000E+00  0.00000000E+00  0.00000000E+00
