Cs8 Mo4 Br24                            
   1.0000000000000000     
    11.9253227699023352    0.0000000000000002    0.0000000000000008
     0.0000000000000021   11.9253227699023352    0.0000000000000008
     0.0000000000000001    0.0000000000000001   11.9253227699023352
   Cs   Hf   I 
     8     4    24
Direct
  0.2500000000000000  0.2500000000000000  0.2500000000000000
  0.7500000000000000  0.2500000000000000  0.2500000000000000
  0.2500000000000000  0.7500000000000000  0.7500000000000000
  0.7500000000000000  0.7500000000000000  0.7500000000000000
  0.7500000000000000  0.2500000000000000  0.7500000000000000
  0.2500000000000000  0.2500000000000000  0.7500000000000000
  0.7500000000000000  0.7500000000000000  0.2500000000000000
  0.2500000000000000  0.7500000000000000  0.2500000000000000
 -0.0000000000000000  0.0000000000000000 -0.0000000000000000
 -0.0000000000000000  0.5000000000000000  0.5000000000000000
  0.5000000000000000  0.0000000000000000  0.5000000000000000
  0.5000000000000000  0.5000000000000000 -0.0000000000000000
  0.2376432342479018  0.0000000000000000 -0.0000000000000000
  0.7623567657520981  0.0000000000000000 -0.0000000000000000
  0.5000000000000000  0.2376432342479018  0.5000000000000000
  0.5000000000000000  0.2623567657520982 -0.0000000000000000
  0.5000000000000000  0.0000000000000000  0.7376432342479019
  0.5000000000000000  0.0000000000000000  0.2623567657520981
  0.2376432342479018  0.5000000000000000  0.5000000000000000
  0.7623567657520981  0.5000000000000000  0.5000000000000000
  0.5000000000000000  0.7376432342479019 -0.0000000000000000
  0.5000000000000000  0.7623567657520981  0.5000000000000000
  0.5000000000000000  0.5000000000000000  0.2376432342479018
  0.5000000000000000  0.5000000000000000  0.7623567657520981
  0.7376432342479019  0.0000000000000000  0.5000000000000000
  0.2623567657520982  0.0000000000000000  0.5000000000000000
  0.0000000000000000  0.2376432342479018 -0.0000000000000000
 -0.0000000000000000  0.2623567657520982  0.5000000000000000
  0.0000000000000000  0.0000000000000000  0.2376432342479018
 -0.0000000000000000  0.0000000000000000  0.7623567657520981
  0.7376432342479019  0.5000000000000000 -0.0000000000000000
  0.2623567657520982  0.5000000000000000 -0.0000000000000000
  0.0000000000000000  0.7376432342479019  0.5000000000000000
 -0.0000000000000000  0.7623567657520981 -0.0000000000000000
  0.0000000000000000  0.5000000000000000  0.7376432342479019
 -0.0000000000000000  0.5000000000000000  0.2623567657520981

  0.00000000E+00  0.00000000E+00  0.00000000E+00
  0.00000000E+00  0.00000000E+00  0.00000000E+00
  0.00000000E+00  0.00000000E+00  0.00000000E+00
  0.00000000E+00  0.00000000E+00  0.00000000E+00
  0.00000000E+00  0.00000000E+00  0.00000000E+00
  0.00000000E+00  0.00000000E+00  0.00000000E+00
  0.00000000E+00  0.00000000E+00  0.00000000E+00
  0.00000000E+00  0.00000000E+00  0.00000000E+00
  0.00000000E+00  0.00000000E+00  0.00000000E+00
  0.00000000E+00  0.00000000E+00  0.00000000E+00
  0.00000000E+00  0.00000000E+00  0.00000000E+00
  0.00000000E+00  0.00000000E+00  0.00000000E+00
  0.00000000E+00  0.00000000E+00  0.00000000E+00
  0.00000000E+00  0.00000000E+00  0.00000000E+00
  0.00000000E+00  0.00000000E+00  0.00000000E+00
  0.00000000E+00  0.00000000E+00  0.00000000E+00
  0.00000000E+00  0.00000000E+00  0.00000000E+00
  0.00000000E+00  0.00000000E+00  0.00000000E+00
  0.00000000E+00  0.00000000E+00  0.00000000E+00
  0.00000000E+00  0.00000000E+00  0.00000000E+00
  0.00000000E+00  0.00000000E+00  0.00000000E+00
  0.00000000E+00  0.00000000E+00  0.00000000E+00
  0.00000000E+00  0.00000000E+00  0.00000000E+00
  0.00000000E+00  0.00000000E+00  0.00000000E+00
  0.00000000E+00  0.00000000E+00  0.00000000E+00
  0.00000000E+00  0.00000000E+00  0.00000000E+00
  0.00000000E+00  0.00000000E+00  0.00000000E+00
  0.00000000E+00  0.00000000E+00  0.00000000E+00
  0.00000000E+00  0.00000000E+00  0.00000000E+00
  0.00000000E+00  0.00000000E+00  0.00000000E+00
  0.00000000E+00  0.00000000E+00  0.00000000E+00
  0.00000000E+00  0.00000000E+00  0.00000000E+00
  0.00000000E+00  0.00000000E+00  0.00000000E+00
  0.00000000E+00  0.00000000E+00  0.00000000E+00
  0.00000000E+00  0.00000000E+00  0.00000000E+00
  0.00000000E+00  0.00000000E+00  0.00000000E+00
