Cs8 Mo4 Br24                            
   1.0000000000000000     
    10.4994590208640410   -0.0000000000000001    0.0000000000000007
     0.0000000000000016   10.4994590208640410    0.0000000000000007
    -0.0000000000000000   -0.0000000000000000   10.4994590208640410
   Cs   Ge   Cl
     8     4    24
Direct
  0.2500000000000000  0.2500000000000000  0.2500000000000000
  0.7500000000000000  0.2500000000000000  0.2500000000000000
  0.2500000000000000  0.7500000000000000  0.7500000000000000
  0.7500000000000000  0.7500000000000000  0.7500000000000000
  0.7500000000000000  0.2500000000000000  0.7500000000000000
  0.2500000000000000  0.2500000000000000  0.7500000000000000
  0.7500000000000000  0.7500000000000000  0.2500000000000000
  0.2500000000000000  0.7500000000000000  0.2500000000000000
 -0.0000000000000000  0.0000000000000000 -0.0000000000000000
 -0.0000000000000000  0.5000000000000000  0.5000000000000000
  0.5000000000000000  0.0000000000000000  0.5000000000000000
  0.5000000000000000  0.5000000000000000 -0.0000000000000000
  0.2194933771856749  0.0000000000000000 -0.0000000000000000
  0.7805066228143251  0.0000000000000000 -0.0000000000000000
  0.5000000000000000  0.2194933771856749  0.5000000000000000
  0.5000000000000000  0.2805066228143252 -0.0000000000000000
  0.5000000000000000  0.0000000000000000  0.7194933771856749
  0.5000000000000000  0.0000000000000000  0.2805066228143252
  0.2194933771856749  0.5000000000000000  0.5000000000000000
  0.7805066228143251  0.5000000000000000  0.5000000000000000
  0.5000000000000000  0.7194933771856749 -0.0000000000000000
  0.5000000000000000  0.7805066228143251  0.5000000000000000
  0.5000000000000000  0.5000000000000000  0.2194933771856749
  0.5000000000000000  0.5000000000000000  0.7805066228143251
  0.7194933771856749  0.0000000000000000  0.5000000000000000
  0.2805066228143252  0.0000000000000000  0.5000000000000000
 -0.0000000000000000  0.2194933771856749 -0.0000000000000000
 -0.0000000000000000  0.2805066228143252  0.5000000000000000
 -0.0000000000000000  0.0000000000000000  0.2194933771856749
 -0.0000000000000000  0.0000000000000000  0.7805066228143251
  0.7194933771856749  0.5000000000000000 -0.0000000000000000
  0.2805066228143252  0.5000000000000000 -0.0000000000000000
 -0.0000000000000000  0.7194933771856749  0.5000000000000000
 -0.0000000000000000  0.7805066228143251 -0.0000000000000000
 -0.0000000000000000  0.5000000000000000  0.7194933771856749
 -0.0000000000000000  0.5000000000000000  0.2805066228143252

  0.00000000E+00  0.00000000E+00  0.00000000E+00
  0.00000000E+00  0.00000000E+00  0.00000000E+00
  0.00000000E+00  0.00000000E+00  0.00000000E+00
  0.00000000E+00  0.00000000E+00  0.00000000E+00
  0.00000000E+00  0.00000000E+00  0.00000000E+00
  0.00000000E+00  0.00000000E+00  0.00000000E+00
  0.00000000E+00  0.00000000E+00  0.00000000E+00
  0.00000000E+00  0.00000000E+00  0.00000000E+00
  0.00000000E+00  0.00000000E+00  0.00000000E+00
  0.00000000E+00  0.00000000E+00  0.00000000E+00
  0.00000000E+00  0.00000000E+00  0.00000000E+00
  0.00000000E+00  0.00000000E+00  0.00000000E+00
  0.00000000E+00  0.00000000E+00  0.00000000E+00
  0.00000000E+00  0.00000000E+00  0.00000000E+00
  0.00000000E+00  0.00000000E+00  0.00000000E+00
  0.00000000E+00  0.00000000E+00  0.00000000E+00
  0.00000000E+00  0.00000000E+00  0.00000000E+00
  0.00000000E+00  0.00000000E+00  0.00000000E+00
  0.00000000E+00  0.00000000E+00  0.00000000E+00
  0.00000000E+00  0.00000000E+00  0.00000000E+00
  0.00000000E+00  0.00000000E+00  0.00000000E+00
  0.00000000E+00  0.00000000E+00  0.00000000E+00
  0.00000000E+00  0.00000000E+00  0.00000000E+00
  0.00000000E+00  0.00000000E+00  0.00000000E+00
  0.00000000E+00  0.00000000E+00  0.00000000E+00
  0.00000000E+00  0.00000000E+00  0.00000000E+00
  0.00000000E+00  0.00000000E+00  0.00000000E+00
  0.00000000E+00  0.00000000E+00  0.00000000E+00
  0.00000000E+00  0.00000000E+00  0.00000000E+00
  0.00000000E+00  0.00000000E+00  0.00000000E+00
  0.00000000E+00  0.00000000E+00  0.00000000E+00
  0.00000000E+00  0.00000000E+00  0.00000000E+00
  0.00000000E+00  0.00000000E+00  0.00000000E+00
  0.00000000E+00  0.00000000E+00  0.00000000E+00
  0.00000000E+00  0.00000000E+00  0.00000000E+00
  0.00000000E+00  0.00000000E+00  0.00000000E+00
