Cs8 Mo4 Br24                            
   1.0000000000000000     
    11.1753153178043565    0.0000000000000001    0.0000000000000007
     0.0000000000000018   11.1753153178043565    0.0000000000000007
     0.0000000000000000    0.0000000000000000   11.1753153178043565
   Cs   Zr   Br
     8     4    24
Direct
  0.2500000000000000  0.2500000000000000  0.2500000000000000
  0.7500000000000000  0.2500000000000000  0.2500000000000000
  0.2500000000000000  0.7500000000000000  0.7500000000000000
  0.7500000000000000  0.7500000000000000  0.7500000000000000
  0.7500000000000000  0.2500000000000000  0.7500000000000000
  0.2500000000000000  0.2500000000000000  0.7500000000000000
  0.7500000000000000  0.7500000000000000  0.2500000000000000
  0.2500000000000000  0.7500000000000000  0.2500000000000000
 -0.0000000000000000 -0.0000000000000000  0.0000000000000000
 -0.0000000000000000  0.5000000000000000  0.5000000000000000
  0.5000000000000000 -0.0000000000000000  0.5000000000000000
  0.5000000000000000  0.5000000000000000  0.0000000000000000
  0.2353154635371991 -0.0000000000000000  0.0000000000000000
  0.7646845364628011 -0.0000000000000000  0.0000000000000000
  0.5000000000000000  0.2353154635371991  0.5000000000000000
  0.5000000000000000  0.2646845364628009  0.0000000000000000
  0.5000000000000000 -0.0000000000000000  0.7353154635371989
  0.5000000000000000 -0.0000000000000000  0.2646845364628009
  0.2353154635371991  0.5000000000000000  0.5000000000000000
  0.7646845364628011  0.5000000000000000  0.5000000000000000
  0.5000000000000000  0.7353154635371989  0.0000000000000000
  0.5000000000000000  0.7646845364628011  0.5000000000000000
  0.5000000000000000  0.5000000000000000  0.2353154635371991
  0.5000000000000000  0.5000000000000000  0.7646845364628011
  0.7353154635371989 -0.0000000000000000  0.5000000000000000
  0.2646845364628009 -0.0000000000000000  0.5000000000000000
 -0.0000000000000000  0.2353154635371991  0.0000000000000000
 -0.0000000000000000  0.2646845364628009  0.5000000000000000
 -0.0000000000000000 -0.0000000000000000  0.2353154635371991
 -0.0000000000000000 -0.0000000000000000  0.7646845364628011
  0.7353154635371989  0.5000000000000000  0.0000000000000000
  0.2646845364628009  0.5000000000000000  0.0000000000000000
 -0.0000000000000000  0.7353154635371989  0.5000000000000000
 -0.0000000000000000  0.7646845364628011  0.0000000000000000
 -0.0000000000000000  0.5000000000000000  0.7353154635371989
 -0.0000000000000000  0.5000000000000000  0.2646845364628009

  0.00000000E+00  0.00000000E+00  0.00000000E+00
  0.00000000E+00  0.00000000E+00  0.00000000E+00
  0.00000000E+00  0.00000000E+00  0.00000000E+00
  0.00000000E+00  0.00000000E+00  0.00000000E+00
  0.00000000E+00  0.00000000E+00  0.00000000E+00
  0.00000000E+00  0.00000000E+00  0.00000000E+00
  0.00000000E+00  0.00000000E+00  0.00000000E+00
  0.00000000E+00  0.00000000E+00  0.00000000E+00
  0.00000000E+00  0.00000000E+00  0.00000000E+00
  0.00000000E+00  0.00000000E+00  0.00000000E+00
  0.00000000E+00  0.00000000E+00  0.00000000E+00
  0.00000000E+00  0.00000000E+00  0.00000000E+00
  0.00000000E+00  0.00000000E+00  0.00000000E+00
  0.00000000E+00  0.00000000E+00  0.00000000E+00
  0.00000000E+00  0.00000000E+00  0.00000000E+00
  0.00000000E+00  0.00000000E+00  0.00000000E+00
  0.00000000E+00  0.00000000E+00  0.00000000E+00
  0.00000000E+00  0.00000000E+00  0.00000000E+00
  0.00000000E+00  0.00000000E+00  0.00000000E+00
  0.00000000E+00  0.00000000E+00  0.00000000E+00
  0.00000000E+00  0.00000000E+00  0.00000000E+00
  0.00000000E+00  0.00000000E+00  0.00000000E+00
  0.00000000E+00  0.00000000E+00  0.00000000E+00
  0.00000000E+00  0.00000000E+00  0.00000000E+00
  0.00000000E+00  0.00000000E+00  0.00000000E+00
  0.00000000E+00  0.00000000E+00  0.00000000E+00
  0.00000000E+00  0.00000000E+00  0.00000000E+00
  0.00000000E+00  0.00000000E+00  0.00000000E+00
  0.00000000E+00  0.00000000E+00  0.00000000E+00
  0.00000000E+00  0.00000000E+00  0.00000000E+00
  0.00000000E+00  0.00000000E+00  0.00000000E+00
  0.00000000E+00  0.00000000E+00  0.00000000E+00
  0.00000000E+00  0.00000000E+00  0.00000000E+00
  0.00000000E+00  0.00000000E+00  0.00000000E+00
  0.00000000E+00  0.00000000E+00  0.00000000E+00
  0.00000000E+00  0.00000000E+00  0.00000000E+00
