Cs8 Mo4 Br24                            
   1.0000000000000000     
    10.9787910395340553    0.0000000000000000    0.0000000000000007
     0.0000000000000018   10.9787910395340553    0.0000000000000007
     0.0000000000000000    0.0000000000000000   10.9787910395340553
   Cs   Ti   Br
     8     4    24
Direct
  0.2500000000000000  0.2500000000000000  0.2500000000000000
  0.7500000000000000  0.2500000000000000  0.2500000000000000
  0.2500000000000000  0.7500000000000000  0.7500000000000000
  0.7500000000000000  0.7500000000000000  0.7500000000000000
  0.7500000000000000  0.2500000000000000  0.7500000000000000
  0.2500000000000000  0.2500000000000000  0.7500000000000000
  0.7500000000000000  0.7500000000000000  0.2500000000000000
  0.2500000000000000  0.7500000000000000  0.2500000000000000
 -0.0000000000000000 -0.0000000000000000  0.0000000000000000
 -0.0000000000000000  0.5000000000000000  0.5000000000000000
  0.5000000000000000 -0.0000000000000000  0.5000000000000000
  0.5000000000000000  0.5000000000000000  0.0000000000000000
  0.2280135896143762 -0.0000000000000000  0.0000000000000000
  0.7719864103856239 -0.0000000000000000  0.0000000000000000
  0.5000000000000000  0.2280135896143762  0.5000000000000000
  0.5000000000000000  0.2719864103856238  0.0000000000000000
  0.5000000000000000 -0.0000000000000000  0.7280135896143761
  0.5000000000000000 -0.0000000000000000  0.2719864103856238
  0.2280135896143762  0.5000000000000000  0.5000000000000000
  0.7719864103856239  0.5000000000000000  0.5000000000000000
  0.5000000000000000  0.7280135896143761  0.0000000000000000
  0.5000000000000000  0.7719864103856239  0.5000000000000000
  0.5000000000000000  0.5000000000000000  0.2280135896143762
  0.5000000000000000  0.5000000000000000  0.7719864103856239
  0.7280135896143761 -0.0000000000000000  0.5000000000000000
  0.2719864103856238 -0.0000000000000000  0.5000000000000000
 -0.0000000000000000  0.2280135896143762  0.0000000000000000
 -0.0000000000000000  0.2719864103856238  0.5000000000000000
 -0.0000000000000000 -0.0000000000000000  0.2280135896143762
 -0.0000000000000000 -0.0000000000000000  0.7719864103856239
  0.7280135896143761  0.5000000000000000  0.0000000000000000
  0.2719864103856238  0.5000000000000000  0.0000000000000000
 -0.0000000000000000  0.7280135896143761  0.5000000000000000
 -0.0000000000000000  0.7719864103856239  0.0000000000000000
 -0.0000000000000000  0.5000000000000000  0.7280135896143761
 -0.0000000000000000  0.5000000000000000  0.2719864103856238

  0.00000000E+00  0.00000000E+00  0.00000000E+00
  0.00000000E+00  0.00000000E+00  0.00000000E+00
  0.00000000E+00  0.00000000E+00  0.00000000E+00
  0.00000000E+00  0.00000000E+00  0.00000000E+00
  0.00000000E+00  0.00000000E+00  0.00000000E+00
  0.00000000E+00  0.00000000E+00  0.00000000E+00
  0.00000000E+00  0.00000000E+00  0.00000000E+00
  0.00000000E+00  0.00000000E+00  0.00000000E+00
  0.00000000E+00  0.00000000E+00  0.00000000E+00
  0.00000000E+00  0.00000000E+00  0.00000000E+00
  0.00000000E+00  0.00000000E+00  0.00000000E+00
  0.00000000E+00  0.00000000E+00  0.00000000E+00
  0.00000000E+00  0.00000000E+00  0.00000000E+00
  0.00000000E+00  0.00000000E+00  0.00000000E+00
  0.00000000E+00  0.00000000E+00  0.00000000E+00
  0.00000000E+00  0.00000000E+00  0.00000000E+00
  0.00000000E+00  0.00000000E+00  0.00000000E+00
  0.00000000E+00  0.00000000E+00  0.00000000E+00
  0.00000000E+00  0.00000000E+00  0.00000000E+00
  0.00000000E+00  0.00000000E+00  0.00000000E+00
  0.00000000E+00  0.00000000E+00  0.00000000E+00
  0.00000000E+00  0.00000000E+00  0.00000000E+00
  0.00000000E+00  0.00000000E+00  0.00000000E+00
  0.00000000E+00  0.00000000E+00  0.00000000E+00
  0.00000000E+00  0.00000000E+00  0.00000000E+00
  0.00000000E+00  0.00000000E+00  0.00000000E+00
  0.00000000E+00  0.00000000E+00  0.00000000E+00
  0.00000000E+00  0.00000000E+00  0.00000000E+00
  0.00000000E+00  0.00000000E+00  0.00000000E+00
  0.00000000E+00  0.00000000E+00  0.00000000E+00
  0.00000000E+00  0.00000000E+00  0.00000000E+00
  0.00000000E+00  0.00000000E+00  0.00000000E+00
  0.00000000E+00  0.00000000E+00  0.00000000E+00
  0.00000000E+00  0.00000000E+00  0.00000000E+00
  0.00000000E+00  0.00000000E+00  0.00000000E+00
  0.00000000E+00  0.00000000E+00  0.00000000E+00
