Cs8 Mo4 Br24                            
   1.0000000000000000     
    11.1309777534808614    0.0000000000000001    0.0000000000000007
     0.0000000000000018   11.1309777534808614    0.0000000000000007
     0.0000000000000000    0.0000000000000000   11.1309777534808614
   Cs   Hf   Br
     8     4    24
Direct
  0.2500000000000000  0.2500000000000000  0.2500000000000000
  0.7500000000000000  0.2500000000000000  0.2500000000000000
  0.2500000000000000  0.7500000000000000  0.7500000000000000
  0.7500000000000000  0.7500000000000000  0.7500000000000000
  0.7500000000000000  0.2500000000000000  0.7500000000000000
  0.2500000000000000  0.2500000000000000  0.7500000000000000
  0.7500000000000000  0.7500000000000000  0.2500000000000000
  0.2500000000000000  0.7500000000000000  0.2500000000000000
  0.0000000000000000 -0.0000000000000000 -0.0000000000000000
  0.0000000000000000  0.5000000000000000  0.5000000000000000
  0.5000000000000000 -0.0000000000000000  0.5000000000000000
  0.5000000000000000  0.5000000000000000 -0.0000000000000000
  0.2338006871432782 -0.0000000000000000 -0.0000000000000000
  0.7661993128567218 -0.0000000000000000 -0.0000000000000000
  0.5000000000000000  0.2338006871432782  0.5000000000000000
  0.5000000000000000  0.2661993128567218 -0.0000000000000000
  0.5000000000000000 -0.0000000000000000  0.7338006871432782
  0.5000000000000000 -0.0000000000000000  0.2661993128567218
  0.2338006871432782  0.5000000000000000  0.5000000000000000
  0.7661993128567218  0.5000000000000000  0.5000000000000000
  0.5000000000000000  0.7338006871432782 -0.0000000000000000
  0.5000000000000000  0.7661993128567218  0.5000000000000000
  0.5000000000000000  0.5000000000000000  0.2338006871432782
  0.5000000000000000  0.5000000000000000  0.7661993128567218
  0.7338006871432782 -0.0000000000000000  0.5000000000000000
  0.2661993128567218 -0.0000000000000000  0.5000000000000000
  0.0000000000000000  0.2338006871432782 -0.0000000000000000
 -0.0000000000000000  0.2661993128567218  0.5000000000000000
  0.0000000000000000 -0.0000000000000000  0.2338006871432782
  0.0000000000000000 -0.0000000000000000  0.7661993128567218
  0.7338006871432782  0.5000000000000000 -0.0000000000000000
  0.2661993128567218  0.5000000000000000 -0.0000000000000000
  0.0000000000000000  0.7338006871432782  0.5000000000000000
 -0.0000000000000000  0.7661993128567218 -0.0000000000000000
  0.0000000000000000  0.5000000000000000  0.7338006871432782
  0.0000000000000000  0.5000000000000000  0.2661993128567218

  0.00000000E+00  0.00000000E+00  0.00000000E+00
  0.00000000E+00  0.00000000E+00  0.00000000E+00
  0.00000000E+00  0.00000000E+00  0.00000000E+00
  0.00000000E+00  0.00000000E+00  0.00000000E+00
  0.00000000E+00  0.00000000E+00  0.00000000E+00
  0.00000000E+00  0.00000000E+00  0.00000000E+00
  0.00000000E+00  0.00000000E+00  0.00000000E+00
  0.00000000E+00  0.00000000E+00  0.00000000E+00
  0.00000000E+00  0.00000000E+00  0.00000000E+00
  0.00000000E+00  0.00000000E+00  0.00000000E+00
  0.00000000E+00  0.00000000E+00  0.00000000E+00
  0.00000000E+00  0.00000000E+00  0.00000000E+00
  0.00000000E+00  0.00000000E+00  0.00000000E+00
  0.00000000E+00  0.00000000E+00  0.00000000E+00
  0.00000000E+00  0.00000000E+00  0.00000000E+00
  0.00000000E+00  0.00000000E+00  0.00000000E+00
  0.00000000E+00  0.00000000E+00  0.00000000E+00
  0.00000000E+00  0.00000000E+00  0.00000000E+00
  0.00000000E+00  0.00000000E+00  0.00000000E+00
  0.00000000E+00  0.00000000E+00  0.00000000E+00
  0.00000000E+00  0.00000000E+00  0.00000000E+00
  0.00000000E+00  0.00000000E+00  0.00000000E+00
  0.00000000E+00  0.00000000E+00  0.00000000E+00
  0.00000000E+00  0.00000000E+00  0.00000000E+00
  0.00000000E+00  0.00000000E+00  0.00000000E+00
  0.00000000E+00  0.00000000E+00  0.00000000E+00
  0.00000000E+00  0.00000000E+00  0.00000000E+00
  0.00000000E+00  0.00000000E+00  0.00000000E+00
  0.00000000E+00  0.00000000E+00  0.00000000E+00
  0.00000000E+00  0.00000000E+00  0.00000000E+00
  0.00000000E+00  0.00000000E+00  0.00000000E+00
  0.00000000E+00  0.00000000E+00  0.00000000E+00
  0.00000000E+00  0.00000000E+00  0.00000000E+00
  0.00000000E+00  0.00000000E+00  0.00000000E+00
  0.00000000E+00  0.00000000E+00  0.00000000E+00
  0.00000000E+00  0.00000000E+00  0.00000000E+00
