Cs8 Mo4 Br24                            
   1.0000000000000000     
    11.0067057812547855    0.0000000000000000    0.0000000000000007
     0.0000000000000018   11.0067057812547855    0.0000000000000007
     0.0000000000000000    0.0000000000000000   11.0067057812547855
   Cs   Ge   Br
     8     4    24
Direct
  0.2500000000000000  0.2500000000000000  0.2500000000000000
  0.7500000000000000  0.2500000000000000  0.2500000000000000
  0.2500000000000000  0.7500000000000000  0.7500000000000000
  0.7500000000000000  0.7500000000000000  0.7500000000000000
  0.7500000000000000  0.2500000000000000  0.7500000000000000
  0.2500000000000000  0.2500000000000000  0.7500000000000000
  0.7500000000000000  0.7500000000000000  0.2500000000000000
  0.2500000000000000  0.7500000000000000  0.2500000000000000
  0.0000000000000000 -0.0000000000000000  0.0000000000000000
  0.0000000000000000  0.5000000000000000  0.5000000000000000
  0.5000000000000000 -0.0000000000000000  0.5000000000000000
  0.5000000000000000  0.5000000000000000  0.0000000000000000
  0.2258388920326900 -0.0000000000000000  0.0000000000000000
  0.7741611079673100  0.0000000000000000  0.0000000000000000
  0.5000000000000000  0.2258388920326900  0.5000000000000000
  0.5000000000000000  0.2741611079673101  0.0000000000000000
  0.5000000000000000 -0.0000000000000000  0.7258388920326900
  0.5000000000000000  0.0000000000000000  0.2741611079673101
  0.2258388920326900  0.5000000000000000  0.5000000000000000
  0.7741611079673100  0.5000000000000000  0.5000000000000000
  0.5000000000000000  0.7258388920326900  0.0000000000000000
  0.5000000000000000  0.7741611079673100  0.5000000000000000
  0.5000000000000000  0.5000000000000000  0.2258388920326900
  0.5000000000000000  0.5000000000000000  0.7741611079673100
  0.7258388920326900 -0.0000000000000000  0.5000000000000000
  0.2741611079673101  0.0000000000000000  0.5000000000000000
  0.0000000000000000  0.2258388920326900  0.0000000000000000
  0.0000000000000000  0.2741611079673101  0.5000000000000000
  0.0000000000000000 -0.0000000000000000  0.2258388920326900
  0.0000000000000000  0.0000000000000000  0.7741611079673100
  0.7258388920326900  0.5000000000000000  0.0000000000000000
  0.2741611079673101  0.5000000000000000  0.0000000000000000
  0.0000000000000000  0.7258388920326900  0.5000000000000000
  0.0000000000000000  0.7741611079673100  0.0000000000000000
  0.0000000000000000  0.5000000000000000  0.7258388920326900
  0.0000000000000000  0.5000000000000000  0.2741611079673101

  0.00000000E+00  0.00000000E+00  0.00000000E+00
  0.00000000E+00  0.00000000E+00  0.00000000E+00
  0.00000000E+00  0.00000000E+00  0.00000000E+00
  0.00000000E+00  0.00000000E+00  0.00000000E+00
  0.00000000E+00  0.00000000E+00  0.00000000E+00
  0.00000000E+00  0.00000000E+00  0.00000000E+00
  0.00000000E+00  0.00000000E+00  0.00000000E+00
  0.00000000E+00  0.00000000E+00  0.00000000E+00
  0.00000000E+00  0.00000000E+00  0.00000000E+00
  0.00000000E+00  0.00000000E+00  0.00000000E+00
  0.00000000E+00  0.00000000E+00  0.00000000E+00
  0.00000000E+00  0.00000000E+00  0.00000000E+00
  0.00000000E+00  0.00000000E+00  0.00000000E+00
  0.00000000E+00  0.00000000E+00  0.00000000E+00
  0.00000000E+00  0.00000000E+00  0.00000000E+00
  0.00000000E+00  0.00000000E+00  0.00000000E+00
  0.00000000E+00  0.00000000E+00  0.00000000E+00
  0.00000000E+00  0.00000000E+00  0.00000000E+00
  0.00000000E+00  0.00000000E+00  0.00000000E+00
  0.00000000E+00  0.00000000E+00  0.00000000E+00
  0.00000000E+00  0.00000000E+00  0.00000000E+00
  0.00000000E+00  0.00000000E+00  0.00000000E+00
  0.00000000E+00  0.00000000E+00  0.00000000E+00
  0.00000000E+00  0.00000000E+00  0.00000000E+00
  0.00000000E+00  0.00000000E+00  0.00000000E+00
  0.00000000E+00  0.00000000E+00  0.00000000E+00
  0.00000000E+00  0.00000000E+00  0.00000000E+00
  0.00000000E+00  0.00000000E+00  0.00000000E+00
  0.00000000E+00  0.00000000E+00  0.00000000E+00
  0.00000000E+00  0.00000000E+00  0.00000000E+00
  0.00000000E+00  0.00000000E+00  0.00000000E+00
  0.00000000E+00  0.00000000E+00  0.00000000E+00
  0.00000000E+00  0.00000000E+00  0.00000000E+00
  0.00000000E+00  0.00000000E+00  0.00000000E+00
  0.00000000E+00  0.00000000E+00  0.00000000E+00
  0.00000000E+00  0.00000000E+00  0.00000000E+00
