Cs8 Mo4 Br24                            
   1.0000000000000000     
    11.2278909846580497    0.0000000000000001    0.0000000000000007
     0.0000000000000018   11.2278909846580497    0.0000000000000007
     0.0000000000000000    0.0000000000000000   11.2278909846580497
   Cs   Te   Br
     8     4    24
Direct
  0.2500000000000000  0.2500000000000000  0.2500000000000000
  0.7500000000000000  0.2500000000000000  0.2500000000000000
  0.2500000000000000  0.7500000000000000  0.7500000000000000
  0.7500000000000000  0.7500000000000000  0.7500000000000000
  0.7500000000000000  0.2500000000000000  0.7500000000000000
  0.2500000000000000  0.2500000000000000  0.7500000000000000
  0.7500000000000000  0.7500000000000000  0.2500000000000000
  0.2500000000000000  0.7500000000000000  0.2500000000000000
  0.0000000000000000 -0.0000000000000000  0.0000000000000000
  0.0000000000000000  0.5000000000000000  0.5000000000000000
  0.5000000000000000 -0.0000000000000000  0.5000000000000000
  0.5000000000000000  0.5000000000000000  0.0000000000000000
  0.2404893638765871 -0.0000000000000000  0.0000000000000000
  0.7595106361234129 -0.0000000000000000  0.0000000000000000
  0.5000000000000000  0.2404893638765871  0.5000000000000000
  0.5000000000000000  0.2595106361234130  0.0000000000000000
  0.5000000000000000 -0.0000000000000000  0.7404893638765871
  0.5000000000000000 -0.0000000000000000  0.2595106361234130
  0.2404893638765871  0.5000000000000000  0.5000000000000000
  0.7595106361234129  0.5000000000000000  0.5000000000000000
  0.5000000000000000  0.7404893638765871  0.0000000000000000
  0.5000000000000000  0.7595106361234129  0.5000000000000000
  0.5000000000000000  0.5000000000000000  0.2404893638765871
  0.5000000000000000  0.5000000000000000  0.7595106361234129
  0.7404893638765871 -0.0000000000000000  0.5000000000000000
  0.2595106361234130 -0.0000000000000000  0.5000000000000000
  0.0000000000000000  0.2404893638765871  0.0000000000000000
  0.0000000000000000  0.2595106361234130  0.5000000000000000
  0.0000000000000000 -0.0000000000000000  0.2404893638765871
  0.0000000000000000 -0.0000000000000000  0.7595106361234129
  0.7404893638765871  0.5000000000000000  0.0000000000000000
  0.2595106361234130  0.5000000000000000  0.0000000000000000
  0.0000000000000000  0.7404893638765871  0.5000000000000000
  0.0000000000000000  0.7595106361234129  0.0000000000000000
  0.0000000000000000  0.5000000000000000  0.7404893638765871
  0.0000000000000000  0.5000000000000000  0.2595106361234130

  0.00000000E+00  0.00000000E+00  0.00000000E+00
  0.00000000E+00  0.00000000E+00  0.00000000E+00
  0.00000000E+00  0.00000000E+00  0.00000000E+00
  0.00000000E+00  0.00000000E+00  0.00000000E+00
  0.00000000E+00  0.00000000E+00  0.00000000E+00
  0.00000000E+00  0.00000000E+00  0.00000000E+00
  0.00000000E+00  0.00000000E+00  0.00000000E+00
  0.00000000E+00  0.00000000E+00  0.00000000E+00
  0.00000000E+00  0.00000000E+00  0.00000000E+00
  0.00000000E+00  0.00000000E+00  0.00000000E+00
  0.00000000E+00  0.00000000E+00  0.00000000E+00
  0.00000000E+00  0.00000000E+00  0.00000000E+00
  0.00000000E+00  0.00000000E+00  0.00000000E+00
  0.00000000E+00  0.00000000E+00  0.00000000E+00
  0.00000000E+00  0.00000000E+00  0.00000000E+00
  0.00000000E+00  0.00000000E+00  0.00000000E+00
  0.00000000E+00  0.00000000E+00  0.00000000E+00
  0.00000000E+00  0.00000000E+00  0.00000000E+00
  0.00000000E+00  0.00000000E+00  0.00000000E+00
  0.00000000E+00  0.00000000E+00  0.00000000E+00
  0.00000000E+00  0.00000000E+00  0.00000000E+00
  0.00000000E+00  0.00000000E+00  0.00000000E+00
  0.00000000E+00  0.00000000E+00  0.00000000E+00
  0.00000000E+00  0.00000000E+00  0.00000000E+00
  0.00000000E+00  0.00000000E+00  0.00000000E+00
  0.00000000E+00  0.00000000E+00  0.00000000E+00
  0.00000000E+00  0.00000000E+00  0.00000000E+00
  0.00000000E+00  0.00000000E+00  0.00000000E+00
  0.00000000E+00  0.00000000E+00  0.00000000E+00
  0.00000000E+00  0.00000000E+00  0.00000000E+00
  0.00000000E+00  0.00000000E+00  0.00000000E+00
  0.00000000E+00  0.00000000E+00  0.00000000E+00
  0.00000000E+00  0.00000000E+00  0.00000000E+00
  0.00000000E+00  0.00000000E+00  0.00000000E+00
  0.00000000E+00  0.00000000E+00  0.00000000E+00
  0.00000000E+00  0.00000000E+00  0.00000000E+00
