Cs8 Mo4 Br24                            
   1.0000000000000000     
    11.7605969748665729    0.0000000000000002    0.0000000000000008
     0.0000000000000020   11.7605969748665729    0.0000000000000008
     0.0000000000000001    0.0000000000000001   11.7605969748665729
   Cs   Ti   I 
     8     4    24
Direct
  0.2500000000000000  0.2500000000000000  0.2500000000000000
  0.7500000000000000  0.2500000000000000  0.2500000000000000
  0.2500000000000000  0.7500000000000000  0.7500000000000000
  0.7500000000000000  0.7500000000000000  0.7500000000000000
  0.7500000000000000  0.2500000000000000  0.7500000000000000
  0.2500000000000000  0.2500000000000000  0.7500000000000000
  0.7500000000000000  0.7500000000000000  0.2500000000000000
  0.2500000000000000  0.7500000000000000  0.2500000000000000
  0.0000000000000000  0.0000000000000000  0.0000000000000000
  0.0000000000000000  0.5000000000000000  0.5000000000000000
  0.5000000000000000  0.0000000000000000  0.5000000000000000
  0.5000000000000000  0.5000000000000000  0.0000000000000000
  0.2330705624119384  0.0000000000000000  0.0000000000000000
  0.7669294375880619  0.0000000000000000  0.0000000000000000
  0.5000000000000000  0.2330705624119384  0.5000000000000000
  0.5000000000000000  0.2669294375880616  0.0000000000000000
  0.5000000000000000  0.0000000000000000  0.7330705624119382
  0.5000000000000000  0.0000000000000000  0.2669294375880616
  0.2330705624119383  0.5000000000000000  0.5000000000000000
  0.7669294375880619  0.5000000000000000  0.5000000000000000
  0.5000000000000000  0.7330705624119381  0.0000000000000000
  0.5000000000000000  0.7669294375880619  0.5000000000000000
  0.5000000000000000  0.5000000000000000  0.2330705624119384
  0.5000000000000000  0.5000000000000000  0.7669294375880618
  0.7330705624119382  0.0000000000000000  0.5000000000000000
  0.2669294375880616  0.0000000000000000  0.5000000000000000
  0.0000000000000000  0.2330705624119384  0.0000000000000000
  0.0000000000000000  0.2669294375880616  0.5000000000000000
  0.0000000000000000  0.0000000000000000  0.2330705624119384
  0.0000000000000000  0.0000000000000000  0.7669294375880618
  0.7330705624119381  0.5000000000000000  0.0000000000000000
  0.2669294375880616  0.5000000000000000  0.0000000000000000
  0.0000000000000000  0.7330705624119381  0.5000000000000000
  0.0000000000000000  0.7669294375880619  0.0000000000000000
  0.0000000000000000  0.5000000000000000  0.7330705624119382
  0.0000000000000000  0.5000000000000000  0.2669294375880616

  0.00000000E+00  0.00000000E+00  0.00000000E+00
  0.00000000E+00  0.00000000E+00  0.00000000E+00
  0.00000000E+00  0.00000000E+00  0.00000000E+00
  0.00000000E+00  0.00000000E+00  0.00000000E+00
  0.00000000E+00  0.00000000E+00  0.00000000E+00
  0.00000000E+00  0.00000000E+00  0.00000000E+00
  0.00000000E+00  0.00000000E+00  0.00000000E+00
  0.00000000E+00  0.00000000E+00  0.00000000E+00
  0.00000000E+00  0.00000000E+00  0.00000000E+00
  0.00000000E+00  0.00000000E+00  0.00000000E+00
  0.00000000E+00  0.00000000E+00  0.00000000E+00
  0.00000000E+00  0.00000000E+00  0.00000000E+00
  0.00000000E+00  0.00000000E+00  0.00000000E+00
  0.00000000E+00  0.00000000E+00  0.00000000E+00
  0.00000000E+00  0.00000000E+00  0.00000000E+00
  0.00000000E+00  0.00000000E+00  0.00000000E+00
  0.00000000E+00  0.00000000E+00  0.00000000E+00
  0.00000000E+00  0.00000000E+00  0.00000000E+00
  0.00000000E+00  0.00000000E+00  0.00000000E+00
  0.00000000E+00  0.00000000E+00  0.00000000E+00
  0.00000000E+00  0.00000000E+00  0.00000000E+00
  0.00000000E+00  0.00000000E+00  0.00000000E+00
  0.00000000E+00  0.00000000E+00  0.00000000E+00
  0.00000000E+00  0.00000000E+00  0.00000000E+00
  0.00000000E+00  0.00000000E+00  0.00000000E+00
  0.00000000E+00  0.00000000E+00  0.00000000E+00
  0.00000000E+00  0.00000000E+00  0.00000000E+00
  0.00000000E+00  0.00000000E+00  0.00000000E+00
  0.00000000E+00  0.00000000E+00  0.00000000E+00
  0.00000000E+00  0.00000000E+00  0.00000000E+00
  0.00000000E+00  0.00000000E+00  0.00000000E+00
  0.00000000E+00  0.00000000E+00  0.00000000E+00
  0.00000000E+00  0.00000000E+00  0.00000000E+00
  0.00000000E+00  0.00000000E+00  0.00000000E+00
  0.00000000E+00  0.00000000E+00  0.00000000E+00
  0.00000000E+00  0.00000000E+00  0.00000000E+00
