Cs8 Mo4 Br24                            
   1.0000000000000000     
    11.2244452686621425    0.0000000000000001    0.0000000000000008
     0.0000000000000018   11.2244452686621425    0.0000000000000008
     0.0000000000000000    0.0000000000000000   11.2244452686621425
   Cs   Pb   Br
     8     4    24
Direct
  0.2500000000000000  0.2500000000000000  0.2500000000000000
  0.7500000000000000  0.2500000000000000  0.2500000000000000
  0.2500000000000000  0.7500000000000000  0.7500000000000000
  0.7500000000000000  0.7500000000000000  0.7500000000000000
  0.7500000000000000  0.2500000000000000  0.7500000000000000
  0.2500000000000000  0.2500000000000000  0.7500000000000000
  0.7500000000000000  0.7500000000000000  0.2500000000000000
  0.2500000000000000  0.7500000000000000  0.2500000000000000
  0.0000000000000000  0.0000000000000000 -0.0000000000000000
  0.0000000000000000  0.5000000000000000  0.5000000000000000
  0.5000000000000000  0.0000000000000000  0.5000000000000000
  0.5000000000000000  0.5000000000000000 -0.0000000000000000
  0.2410615804029544  0.0000000000000000 -0.0000000000000000
  0.7589384195970457  0.0000000000000000 -0.0000000000000000
  0.5000000000000000  0.2410615804029544  0.5000000000000000
  0.5000000000000000  0.2589384195970456 -0.0000000000000000
  0.5000000000000000  0.0000000000000000  0.7410615804029543
  0.5000000000000000  0.0000000000000000  0.2589384195970456
  0.2410615804029544  0.5000000000000000  0.5000000000000000
  0.7589384195970457  0.5000000000000000  0.5000000000000000
  0.5000000000000000  0.7410615804029543 -0.0000000000000000
  0.5000000000000000  0.7589384195970457  0.5000000000000000
  0.5000000000000000  0.5000000000000000  0.2410615804029544
  0.5000000000000000  0.5000000000000000  0.7589384195970457
  0.7410615804029543  0.0000000000000000  0.5000000000000000
  0.2589384195970456  0.0000000000000000  0.5000000000000000
  0.0000000000000000  0.2410615804029544 -0.0000000000000000
  0.0000000000000000  0.2589384195970456  0.5000000000000000
  0.0000000000000000  0.0000000000000000  0.2410615804029544
  0.0000000000000000  0.0000000000000000  0.7589384195970457
  0.7410615804029543  0.5000000000000000 -0.0000000000000000
  0.2589384195970456  0.5000000000000000 -0.0000000000000000
  0.0000000000000000  0.7410615804029543  0.5000000000000000
  0.0000000000000000  0.7589384195970457 -0.0000000000000000
  0.0000000000000000  0.5000000000000000  0.7410615804029543
  0.0000000000000000  0.5000000000000000  0.2589384195970456

  0.00000000E+00  0.00000000E+00  0.00000000E+00
  0.00000000E+00  0.00000000E+00  0.00000000E+00
  0.00000000E+00  0.00000000E+00  0.00000000E+00
  0.00000000E+00  0.00000000E+00  0.00000000E+00
  0.00000000E+00  0.00000000E+00  0.00000000E+00
  0.00000000E+00  0.00000000E+00  0.00000000E+00
  0.00000000E+00  0.00000000E+00  0.00000000E+00
  0.00000000E+00  0.00000000E+00  0.00000000E+00
  0.00000000E+00  0.00000000E+00  0.00000000E+00
  0.00000000E+00  0.00000000E+00  0.00000000E+00
  0.00000000E+00  0.00000000E+00  0.00000000E+00
  0.00000000E+00  0.00000000E+00  0.00000000E+00
  0.00000000E+00  0.00000000E+00  0.00000000E+00
  0.00000000E+00  0.00000000E+00  0.00000000E+00
  0.00000000E+00  0.00000000E+00  0.00000000E+00
  0.00000000E+00  0.00000000E+00  0.00000000E+00
  0.00000000E+00  0.00000000E+00  0.00000000E+00
  0.00000000E+00  0.00000000E+00  0.00000000E+00
  0.00000000E+00  0.00000000E+00  0.00000000E+00
  0.00000000E+00  0.00000000E+00  0.00000000E+00
  0.00000000E+00  0.00000000E+00  0.00000000E+00
  0.00000000E+00  0.00000000E+00  0.00000000E+00
  0.00000000E+00  0.00000000E+00  0.00000000E+00
  0.00000000E+00  0.00000000E+00  0.00000000E+00
  0.00000000E+00  0.00000000E+00  0.00000000E+00
  0.00000000E+00  0.00000000E+00  0.00000000E+00
  0.00000000E+00  0.00000000E+00  0.00000000E+00
  0.00000000E+00  0.00000000E+00  0.00000000E+00
  0.00000000E+00  0.00000000E+00  0.00000000E+00
  0.00000000E+00  0.00000000E+00  0.00000000E+00
  0.00000000E+00  0.00000000E+00  0.00000000E+00
  0.00000000E+00  0.00000000E+00  0.00000000E+00
  0.00000000E+00  0.00000000E+00  0.00000000E+00
  0.00000000E+00  0.00000000E+00  0.00000000E+00
  0.00000000E+00  0.00000000E+00  0.00000000E+00
  0.00000000E+00  0.00000000E+00  0.00000000E+00
