Cs8 Mo4 Br24                            
   1.0000000000000000     
    10.6478345540511370   -0.0000000000000000    0.0000000000000007
     0.0000000000000016   10.6478345540511370    0.0000000000000007
    -0.0000000000000000   -0.0000000000000000   10.6478345540511352
   Cs   Sn   Cl
     8     4    24
Direct
  0.2500000000000000  0.2500000000000000  0.2500000000000000
  0.7500000000000000  0.2500000000000000  0.2500000000000000
  0.2500000000000000  0.7500000000000000  0.7500000000000000
  0.7500000000000000  0.7500000000000000  0.7500000000000000
  0.7500000000000000  0.2500000000000000  0.7500000000000000
  0.2500000000000000  0.2500000000000000  0.7500000000000000
  0.7500000000000000  0.7500000000000000  0.2500000000000000
  0.2500000000000000  0.7500000000000000  0.2500000000000000
  0.0000000000000000  0.0000000000000000 -0.0000000000000000
  0.0000000000000000  0.5000000000000000  0.5000000000000000
  0.5000000000000000  0.0000000000000000  0.5000000000000000
  0.5000000000000000  0.5000000000000000 -0.0000000000000000
  0.2292704145484801  0.0000000000000000  0.0000000000000000
  0.7707295854515199  0.0000000000000000 -0.0000000000000000
  0.5000000000000000  0.2292704145484801  0.5000000000000000
  0.5000000000000000  0.2707295854515199 -0.0000000000000000
  0.5000000000000000  0.0000000000000000  0.7292704145484801
  0.5000000000000000  0.0000000000000000  0.2707295854515199
  0.2292704145484801  0.5000000000000000  0.5000000000000000
  0.7707295854515199  0.5000000000000000  0.5000000000000000
  0.5000000000000000  0.7292704145484801  0.0000000000000000
  0.5000000000000000  0.7707295854515199  0.5000000000000000
  0.5000000000000000  0.5000000000000000  0.2292704145484801
  0.5000000000000000  0.5000000000000000  0.7707295854515199
  0.7292704145484801  0.0000000000000000  0.5000000000000000
  0.2707295854515199  0.0000000000000000  0.5000000000000000
  0.0000000000000000  0.2292704145484801  0.0000000000000000
  0.0000000000000000  0.2707295854515199  0.5000000000000000
  0.0000000000000000  0.0000000000000000  0.2292704145484801
  0.0000000000000000  0.0000000000000000  0.7707295854515199
  0.7292704145484801  0.5000000000000000  0.0000000000000000
  0.2707295854515199  0.5000000000000000 -0.0000000000000000
  0.0000000000000000  0.7292704145484801  0.5000000000000000
  0.0000000000000000  0.7707295854515199 -0.0000000000000000
  0.0000000000000000  0.5000000000000000  0.7292704145484801
  0.0000000000000000  0.5000000000000000  0.2707295854515199

  0.00000000E+00  0.00000000E+00  0.00000000E+00
  0.00000000E+00  0.00000000E+00  0.00000000E+00
  0.00000000E+00  0.00000000E+00  0.00000000E+00
  0.00000000E+00  0.00000000E+00  0.00000000E+00
  0.00000000E+00  0.00000000E+00  0.00000000E+00
  0.00000000E+00  0.00000000E+00  0.00000000E+00
  0.00000000E+00  0.00000000E+00  0.00000000E+00
  0.00000000E+00  0.00000000E+00  0.00000000E+00
  0.00000000E+00  0.00000000E+00  0.00000000E+00
  0.00000000E+00  0.00000000E+00  0.00000000E+00
  0.00000000E+00  0.00000000E+00  0.00000000E+00
  0.00000000E+00  0.00000000E+00  0.00000000E+00
  0.00000000E+00  0.00000000E+00  0.00000000E+00
  0.00000000E+00  0.00000000E+00  0.00000000E+00
  0.00000000E+00  0.00000000E+00  0.00000000E+00
  0.00000000E+00  0.00000000E+00  0.00000000E+00
  0.00000000E+00  0.00000000E+00  0.00000000E+00
  0.00000000E+00  0.00000000E+00  0.00000000E+00
  0.00000000E+00  0.00000000E+00  0.00000000E+00
  0.00000000E+00  0.00000000E+00  0.00000000E+00
  0.00000000E+00  0.00000000E+00  0.00000000E+00
  0.00000000E+00  0.00000000E+00  0.00000000E+00
  0.00000000E+00  0.00000000E+00  0.00000000E+00
  0.00000000E+00  0.00000000E+00  0.00000000E+00
  0.00000000E+00  0.00000000E+00  0.00000000E+00
  0.00000000E+00  0.00000000E+00  0.00000000E+00
  0.00000000E+00  0.00000000E+00  0.00000000E+00
  0.00000000E+00  0.00000000E+00  0.00000000E+00
  0.00000000E+00  0.00000000E+00  0.00000000E+00
  0.00000000E+00  0.00000000E+00  0.00000000E+00
  0.00000000E+00  0.00000000E+00  0.00000000E+00
  0.00000000E+00  0.00000000E+00  0.00000000E+00
  0.00000000E+00  0.00000000E+00  0.00000000E+00
  0.00000000E+00  0.00000000E+00  0.00000000E+00
  0.00000000E+00  0.00000000E+00  0.00000000E+00
  0.00000000E+00  0.00000000E+00  0.00000000E+00
