Cs2 Hf1 Cl6                             
   1.0000000000000000     
    -0.0000000000000000    5.6496805149247376    5.6496805149247384
     5.6496805149247376   -0.0000000000000000    5.6496805149247384
     5.6496805149247376    5.6496805149247376   -0.0000000000000000
   Cs   Te   Br
     2     1     6
Direct
  0.2500000000000000  0.2500000000000000  0.2500000000000000
  0.7500000000000000  0.7500000000000000  0.7500000000000000
 -0.0000000000000000  0.0000000000000000 -0.0000000000000000
  0.7611374641000823  0.2388625358999176  0.2388625358999176
  0.2388625358999176  0.7611374641000823  0.7611374641000823
  0.2388625358999177  0.7611374641000823  0.2388625358999177
  0.7611374641000823  0.2388625358999177  0.7611374641000823
  0.2388625358999177  0.2388625358999177  0.7611374641000823
  0.7611374641000823  0.7611374641000823  0.2388625358999177

  0.00000000E+00  0.00000000E+00  0.00000000E+00
  0.00000000E+00  0.00000000E+00  0.00000000E+00
  0.00000000E+00  0.00000000E+00  0.00000000E+00
  0.00000000E+00  0.00000000E+00  0.00000000E+00
  0.00000000E+00  0.00000000E+00  0.00000000E+00
  0.00000000E+00  0.00000000E+00  0.00000000E+00
  0.00000000E+00  0.00000000E+00  0.00000000E+00
  0.00000000E+00  0.00000000E+00  0.00000000E+00
  0.00000000E+00  0.00000000E+00  0.00000000E+00
