Cs2 Hf1 Cl6                             
   1.0000000000000000     
     0.0000000000000000    5.5879748708503589    5.5879748708503589
     5.5879748708503589   -0.0000000000000000    5.5879748708503589
     5.5879748708503589    5.5879748708503589    0.0000000000000000
   Cs   Hf   Br
     2     1     6
Direct
  0.2500000000000000  0.2500000000000000  0.2500000000000000
  0.7500000000000000  0.7500000000000000  0.7500000000000000
  0.0000000000000000 -0.0000000000000000  0.0000000000000000
  0.7670894010415936  0.2329105989584064  0.2329105989584064
  0.2329105989584064  0.7670894010415936  0.7670894010415936
  0.2329105989584064  0.7670894010415936  0.2329105989584064
  0.7670894010415936  0.2329105989584064  0.7670894010415936
  0.2329105989584064  0.2329105989584064  0.7670894010415936
  0.7670894010415936  0.7670894010415936  0.2329105989584064

  0.00000000E+00  0.00000000E+00  0.00000000E+00
  0.00000000E+00  0.00000000E+00  0.00000000E+00
  0.00000000E+00  0.00000000E+00  0.00000000E+00
  0.00000000E+00  0.00000000E+00  0.00000000E+00
  0.00000000E+00  0.00000000E+00  0.00000000E+00
  0.00000000E+00  0.00000000E+00  0.00000000E+00
  0.00000000E+00  0.00000000E+00  0.00000000E+00
  0.00000000E+00  0.00000000E+00  0.00000000E+00
  0.00000000E+00  0.00000000E+00  0.00000000E+00
