Cs2 Hf1 Cl6                             
   1.0000000000000000     
     0.0000000000000000    5.6553322381297297    5.6553322381297297
     5.6553322381297297    0.0000000000000000    5.6553322381297297
     5.6553322381297297    5.6553322381297297    0.0000000000000000
   Cs   Pb   Br
     2     1     6
Direct
  0.2500000000000000  0.2500000000000000  0.2500000000000000
  0.7500000000000000  0.7500000000000000  0.7500000000000000
 -0.0000000000000000  0.0000000000000000  0.0000000000000000
  0.7609667403854202  0.2390332596145797  0.2390332596145797
  0.2390332596145797  0.7609667403854202  0.7609667403854202
  0.2390332596145797  0.7609667403854202  0.2390332596145797
  0.7609667403854202  0.2390332596145797  0.7609667403854202
  0.2390332596145797  0.2390332596145797  0.7609667403854202
  0.7609667403854202  0.7609667403854202  0.2390332596145797

  0.00000000E+00  0.00000000E+00  0.00000000E+00
  0.00000000E+00  0.00000000E+00  0.00000000E+00
  0.00000000E+00  0.00000000E+00  0.00000000E+00
  0.00000000E+00  0.00000000E+00  0.00000000E+00
  0.00000000E+00  0.00000000E+00  0.00000000E+00
  0.00000000E+00  0.00000000E+00  0.00000000E+00
  0.00000000E+00  0.00000000E+00  0.00000000E+00
  0.00000000E+00  0.00000000E+00  0.00000000E+00
  0.00000000E+00  0.00000000E+00  0.00000000E+00
