Cs2 Hf1 Cl6                             
   1.0000000000000000     
     0.0000000000000000    5.6038030241903698    5.6038030241903698
     5.6038030241903698   -0.0000000000000000    5.6038030241903698
     5.6038030241903698    5.6038030241903698    0.0000000000000000
   Cs   Zr   Br
     2     1     6
Direct
  0.2500000000000000  0.2500000000000000  0.2500000000000000
  0.7500000000000000  0.7500000000000000  0.7500000000000000
  0.0000000000000000 -0.0000000000000000 -0.0000000000000000
  0.7653097235779449  0.2346902764220552  0.2346902764220552
  0.2346902764220552  0.7653097235779449  0.7653097235779449
  0.2346902764220552  0.7653097235779449  0.2346902764220552
  0.7653097235779449  0.2346902764220552  0.7653097235779449
  0.2346902764220552  0.2346902764220552  0.7653097235779449
  0.7653097235779449  0.7653097235779449  0.2346902764220552

  0.00000000E+00  0.00000000E+00  0.00000000E+00
  0.00000000E+00  0.00000000E+00  0.00000000E+00
  0.00000000E+00  0.00000000E+00  0.00000000E+00
  0.00000000E+00  0.00000000E+00  0.00000000E+00
  0.00000000E+00  0.00000000E+00  0.00000000E+00
  0.00000000E+00  0.00000000E+00  0.00000000E+00
  0.00000000E+00  0.00000000E+00  0.00000000E+00
  0.00000000E+00  0.00000000E+00  0.00000000E+00
  0.00000000E+00  0.00000000E+00  0.00000000E+00
