Cs2 Hf1 Cl6                             
   1.0000000000000000     
    -0.0000000000000001    5.5271004724223287    5.5271004724223287
     5.5271004724223287   -0.0000000000000000    5.5271004724223287
     5.5271004724223287    5.5271004724223287    0.0000000000000000
   Cs   Ge   Br
     2     1     6
Direct
  0.2500000000000000  0.2500000000000000  0.2500000000000000
  0.7500000000000000  0.7500000000000000  0.7500000000000000
  0.0000000000000000 -0.0000000000000000 -0.0000000000000000
  0.7751186029084618  0.2248813970915382  0.2248813970915382
  0.2248813970915382  0.7751186029084618  0.7751186029084618
  0.2248813970915382  0.7751186029084618  0.2248813970915382
  0.7751186029084618  0.2248813970915382  0.7751186029084618
  0.2248813970915382  0.2248813970915382  0.7751186029084618
  0.7751186029084618  0.7751186029084618  0.2248813970915382

  0.00000000E+00  0.00000000E+00  0.00000000E+00
  0.00000000E+00  0.00000000E+00  0.00000000E+00
  0.00000000E+00  0.00000000E+00  0.00000000E+00
  0.00000000E+00  0.00000000E+00  0.00000000E+00
  0.00000000E+00  0.00000000E+00  0.00000000E+00
  0.00000000E+00  0.00000000E+00  0.00000000E+00
  0.00000000E+00  0.00000000E+00  0.00000000E+00
  0.00000000E+00  0.00000000E+00  0.00000000E+00
  0.00000000E+00  0.00000000E+00  0.00000000E+00
