Cs2 Hf1 Cl6                             
   1.0000000000000000     
    -0.0000000000000000    5.2554820374289548    5.2554820374289548
     5.2554820374289548   -0.0000000000000000    5.2554820374289548
     5.2554820374289548    5.2554820374289548    0.0000000000000000
   Cs   Ti   Cl
     2     1     6
Direct
  0.2500000000000000  0.2500000000000000  0.2500000000000000
  0.7500000000000000  0.7500000000000000  0.7500000000000000
  0.0000000000000000 -0.0000000000000000 -0.0000000000000000
  0.7773994426923163  0.2226005573076837  0.2226005573076837
  0.2226005573076837  0.7773994426923163  0.7773994426923163
  0.2226005573076837  0.7773994426923163  0.2226005573076837
  0.7773994426923163  0.2226005573076837  0.7773994426923163
  0.2226005573076837  0.2226005573076837  0.7773994426923163
  0.7773994426923163  0.7773994426923163  0.2226005573076837

  0.00000000E+00  0.00000000E+00  0.00000000E+00
  0.00000000E+00  0.00000000E+00  0.00000000E+00
  0.00000000E+00  0.00000000E+00  0.00000000E+00
  0.00000000E+00  0.00000000E+00  0.00000000E+00
  0.00000000E+00  0.00000000E+00  0.00000000E+00
  0.00000000E+00  0.00000000E+00  0.00000000E+00
  0.00000000E+00  0.00000000E+00  0.00000000E+00
  0.00000000E+00  0.00000000E+00  0.00000000E+00
  0.00000000E+00  0.00000000E+00  0.00000000E+00
