Cs2 Hf1 Cl6                             
   1.0000000000000000     
    -0.0000000000000000    5.5157133822936659    5.5157133822936659
     5.5157133822936659   -0.0000000000000000    5.5157133822936659
     5.5157133822936659    5.5157133822936659   -0.0000000000000000
   Cs   Ti   Br
     2     1     6
Direct
  0.2500000000000000  0.2500000000000000  0.2500000000000000
  0.7500000000000000  0.7500000000000000  0.7500000000000000
  0.0000000000000000 -0.0000000000000000  0.0000000000000000
  0.7730646336733807  0.2269353663266193  0.2269353663266193
  0.2269353663266193  0.7730646336733807  0.7730646336733807
  0.2269353663266193  0.7730646336733807  0.2269353663266193
  0.7730646336733807  0.2269353663266193  0.7730646336733807
  0.2269353663266193  0.2269353663266193  0.7730646336733807
  0.7730646336733807  0.7730646336733807  0.2269353663266193

  0.00000000E+00  0.00000000E+00  0.00000000E+00
  0.00000000E+00  0.00000000E+00  0.00000000E+00
  0.00000000E+00  0.00000000E+00  0.00000000E+00
  0.00000000E+00  0.00000000E+00  0.00000000E+00
  0.00000000E+00  0.00000000E+00  0.00000000E+00
  0.00000000E+00  0.00000000E+00  0.00000000E+00
  0.00000000E+00  0.00000000E+00  0.00000000E+00
  0.00000000E+00  0.00000000E+00  0.00000000E+00
  0.00000000E+00  0.00000000E+00  0.00000000E+00
