Cs2 Hf1 Cl6                             
   1.0000000000000000     
     0.0000000000000000    5.9357034180794583    5.9357034180794583
     5.9357034180794583   -0.0000000000000000    5.9357034180794583
     5.9357034180794583    5.9357034180794583   -0.0000000000000000
   Cs   Ti   I 
     2     1     6
Direct
  0.2500000000000000  0.2500000000000000  0.2500000000000000
  0.7500000000000000  0.7500000000000000  0.7500000000000000
  0.0000000000000000 -0.0000000000000000 -0.0000000000000000
  0.7689970448797060  0.2310029551202939  0.2310029551202939
  0.2310029551202939  0.7689970448797060  0.7689970448797060
  0.2310029551202939  0.7689970448797060  0.2310029551202939
  0.7689970448797060  0.2310029551202939  0.7689970448797060
  0.2310029551202939  0.2310029551202939  0.7689970448797060
  0.7689970448797060  0.7689970448797060  0.2310029551202939

  0.00000000E+00  0.00000000E+00  0.00000000E+00
  0.00000000E+00  0.00000000E+00  0.00000000E+00
  0.00000000E+00  0.00000000E+00  0.00000000E+00
  0.00000000E+00  0.00000000E+00  0.00000000E+00
  0.00000000E+00  0.00000000E+00  0.00000000E+00
  0.00000000E+00  0.00000000E+00  0.00000000E+00
  0.00000000E+00  0.00000000E+00  0.00000000E+00
  0.00000000E+00  0.00000000E+00  0.00000000E+00
  0.00000000E+00  0.00000000E+00  0.00000000E+00
