Cs2 Hf1 Cl6                             
   1.0000000000000000     
     0.0000000000000000    5.2568150339467250    5.2568150339467250
     5.2568150339467250    0.0000000000000000    5.2568150339467250
     5.2568150339467250    5.2568150339467250    0.0000000000000000
   Cs   Ge   Cl
     2     1     6
Direct
  0.2500000000000000  0.2500000000000000  0.2500000000000000
  0.7500000000000000  0.7500000000000000  0.7500000000000000
  0.0000000000000000  0.0000000000000000 -0.0000000000000000
  0.7807928162888228  0.2192071837111772  0.2192071837111772
  0.2192071837111772  0.7807928162888228  0.7807928162888228
  0.2192071837111772  0.7807928162888228  0.2192071837111772
  0.7807928162888228  0.2192071837111772  0.7807928162888228
  0.2192071837111772  0.2192071837111772  0.7807928162888228
  0.7807928162888228  0.7807928162888228  0.2192071837111772

  0.00000000E+00  0.00000000E+00  0.00000000E+00
  0.00000000E+00  0.00000000E+00  0.00000000E+00
  0.00000000E+00  0.00000000E+00  0.00000000E+00
  0.00000000E+00  0.00000000E+00  0.00000000E+00
  0.00000000E+00  0.00000000E+00  0.00000000E+00
  0.00000000E+00  0.00000000E+00  0.00000000E+00
  0.00000000E+00  0.00000000E+00  0.00000000E+00
  0.00000000E+00  0.00000000E+00  0.00000000E+00
  0.00000000E+00  0.00000000E+00  0.00000000E+00
