Cs2 Hf1 Cl6                             
   1.0000000000000000     
     0.0000000000000000    6.0270848600476619    6.0270848600476619
     6.0270848600476619   -0.0000000000000000    6.0270848600476619
     6.0270848600476619    6.0270848600476619   -0.0000000000000000
   Cs   Zr   I 
     2     1     6
Direct
  0.2500000000000000  0.2500000000000000  0.2500000000000000
  0.7500000000000000  0.7500000000000000  0.7500000000000000
 -0.0000000000000000  0.0000000000000000 -0.0000000000000000
  0.7624173313539823  0.2375826686460178  0.2375826686460178
  0.2375826686460178  0.7624173313539823  0.7624173313539823
  0.2375826686460178  0.7624173313539823  0.2375826686460178
  0.7624173313539823  0.2375826686460178  0.7624173313539823
  0.2375826686460178  0.2375826686460178  0.7624173313539823
  0.7624173313539823  0.7624173313539823  0.2375826686460178

  0.00000000E+00  0.00000000E+00  0.00000000E+00
  0.00000000E+00  0.00000000E+00  0.00000000E+00
  0.00000000E+00  0.00000000E+00  0.00000000E+00
  0.00000000E+00  0.00000000E+00  0.00000000E+00
  0.00000000E+00  0.00000000E+00  0.00000000E+00
  0.00000000E+00  0.00000000E+00  0.00000000E+00
  0.00000000E+00  0.00000000E+00  0.00000000E+00
  0.00000000E+00  0.00000000E+00  0.00000000E+00
  0.00000000E+00  0.00000000E+00  0.00000000E+00
