Cs2 Hf1 Cl6                             
   1.0000000000000000     
     0.0000000000000000    6.0171101047894577    6.0171101047894577
     6.0171101047894577    0.0000000000000000    6.0171101047894577
     6.0171101047894577    6.0171101047894577   -0.0000000000000000
   Cs   Hf   I 
     2     1     6
Direct
  0.2500000000000000  0.2500000000000000  0.2500000000000000
  0.7500000000000000  0.7500000000000000  0.7500000000000000
 -0.0000000000000000  0.0000000000000000  0.0000000000000000
  0.7643851472543589  0.2356148527456410  0.2356148527456410
  0.2356148527456410  0.7643851472543589  0.7643851472543589
  0.2356148527456410  0.7643851472543589  0.2356148527456410
  0.7643851472543589  0.2356148527456410  0.7643851472543589
  0.2356148527456410  0.2356148527456410  0.7643851472543589
  0.7643851472543589  0.7643851472543589  0.2356148527456410

  0.00000000E+00  0.00000000E+00  0.00000000E+00
  0.00000000E+00  0.00000000E+00  0.00000000E+00
  0.00000000E+00  0.00000000E+00  0.00000000E+00
  0.00000000E+00  0.00000000E+00  0.00000000E+00
  0.00000000E+00  0.00000000E+00  0.00000000E+00
  0.00000000E+00  0.00000000E+00  0.00000000E+00
  0.00000000E+00  0.00000000E+00  0.00000000E+00
  0.00000000E+00  0.00000000E+00  0.00000000E+00
  0.00000000E+00  0.00000000E+00  0.00000000E+00
