Cs2 Hf1 Cl6                             
   1.0000000000000000     
    -0.0000000000000000    5.3868080920093693    5.3868080920093693
     5.3868080920093693    0.0000000000000000    5.3868080920093693
     5.3868080920093693    5.3868080920093693   -0.0000000000000000
   Cs   Te   Cl
     2     1     6
Direct
  0.2500000000000000  0.2500000000000000  0.2500000000000000
  0.7500000000000000  0.7500000000000000  0.7500000000000000
 -0.0000000000000000  0.0000000000000000 -0.0000000000000000
  0.7647372025898078  0.2352627974101921  0.2352627974101921
  0.2352627974101921  0.7647372025898078  0.7647372025898078
  0.2352627974101921  0.7647372025898078  0.2352627974101921
  0.7647372025898078  0.2352627974101921  0.7647372025898078
  0.2352627974101921  0.2352627974101921  0.7647372025898078
  0.7647372025898078  0.7647372025898078  0.2352627974101921

  0.00000000E+00  0.00000000E+00  0.00000000E+00
  0.00000000E+00  0.00000000E+00  0.00000000E+00
  0.00000000E+00  0.00000000E+00  0.00000000E+00
  0.00000000E+00  0.00000000E+00  0.00000000E+00
  0.00000000E+00  0.00000000E+00  0.00000000E+00
  0.00000000E+00  0.00000000E+00  0.00000000E+00
  0.00000000E+00  0.00000000E+00  0.00000000E+00
  0.00000000E+00  0.00000000E+00  0.00000000E+00
  0.00000000E+00  0.00000000E+00  0.00000000E+00
