Cs2 Hf1 Cl6                             
   1.0000000000000000     
     0.0000000000000000    6.0801308569230690    6.0801308569230690
     6.0801308569230690   -0.0000000000000000    6.0801308569230690
     6.0801308569230690    6.0801308569230690   -0.0000000000000000
   Cs   Te   I 
     2     1     6
Direct
  0.2500000000000000  0.2500000000000000  0.2500000000000000
  0.7500000000000000  0.7500000000000000  0.7500000000000000
 -0.0000000000000000 -0.0000000000000000  0.0000000000000000
  0.7592192838285334  0.2407807161714665  0.2407807161714665
  0.2407807161714666  0.7592192838285334  0.7592192838285334
  0.2407807161714665  0.7592192838285334  0.2407807161714665
  0.7592192838285334  0.2407807161714665  0.7592192838285334
  0.2407807161714666  0.2407807161714666  0.7592192838285334
  0.7592192838285334  0.7592192838285334  0.2407807161714665

  0.00000000E+00  0.00000000E+00  0.00000000E+00
  0.00000000E+00  0.00000000E+00  0.00000000E+00
  0.00000000E+00  0.00000000E+00  0.00000000E+00
  0.00000000E+00  0.00000000E+00  0.00000000E+00
  0.00000000E+00  0.00000000E+00  0.00000000E+00
  0.00000000E+00  0.00000000E+00  0.00000000E+00
  0.00000000E+00  0.00000000E+00  0.00000000E+00
  0.00000000E+00  0.00000000E+00  0.00000000E+00
  0.00000000E+00  0.00000000E+00  0.00000000E+00
