Cs2 Hf1 Cl6                             
   1.0000000000000000     
    -0.0000000000000000    5.3359377054688650    5.3359377054688650
     5.3359377054688650   -0.0000000000000000    5.3359377054688650
     5.3359377054688650    5.3359377054688650    0.0000000000000000
   Cs   Sn   Cl
     2     1     6
Direct
  0.2500000000000000  0.2500000000000000  0.2500000000000000
  0.7500000000000000  0.7500000000000000  0.7500000000000000
 -0.0000000000000000  0.0000000000000000 -0.0000000000000000
  0.7712160395807079  0.2287839604192922  0.2287839604192922
  0.2287839604192922  0.7712160395807079  0.7712160395807079
  0.2287839604192922  0.7712160395807079  0.2287839604192922
  0.7712160395807079  0.2287839604192922  0.7712160395807079
  0.2287839604192922  0.2287839604192922  0.7712160395807079
  0.7712160395807079  0.7712160395807079  0.2287839604192922

  0.00000000E+00  0.00000000E+00  0.00000000E+00
  0.00000000E+00  0.00000000E+00  0.00000000E+00
  0.00000000E+00  0.00000000E+00  0.00000000E+00
  0.00000000E+00  0.00000000E+00  0.00000000E+00
  0.00000000E+00  0.00000000E+00  0.00000000E+00
  0.00000000E+00  0.00000000E+00  0.00000000E+00
  0.00000000E+00  0.00000000E+00  0.00000000E+00
  0.00000000E+00  0.00000000E+00  0.00000000E+00
  0.00000000E+00  0.00000000E+00  0.00000000E+00
