Cs2 Hf1 Cl6                             
   1.0000000000000000     
    -0.0000000000000000    5.3860799887455801    5.3860799887455801
     5.3860799887455801   -0.0000000000000000    5.3860799887455801
     5.3860799887455801    5.3860799887455801    0.0000000000000000
   Cs   Pb   Cl
     2     1     6
Direct
  0.2500000000000000  0.2500000000000000  0.2500000000000000
  0.7500000000000000  0.7500000000000000  0.7500000000000000
  0.0000000000000000  0.0000000000000000 -0.0000000000000000
  0.7646241739719531  0.2353758260280468  0.2353758260280468
  0.2353758260280468  0.7646241739719531  0.7646241739719531
  0.2353758260280468  0.7646241739719531  0.2353758260280468
  0.7646241739719533  0.2353758260280468  0.7646241739719533
  0.2353758260280468  0.2353758260280468  0.7646241739719533
  0.7646241739719531  0.7646241739719531  0.2353758260280468

  0.00000000E+00  0.00000000E+00  0.00000000E+00
  0.00000000E+00  0.00000000E+00  0.00000000E+00
  0.00000000E+00  0.00000000E+00  0.00000000E+00
  0.00000000E+00  0.00000000E+00  0.00000000E+00
  0.00000000E+00  0.00000000E+00  0.00000000E+00
  0.00000000E+00  0.00000000E+00  0.00000000E+00
  0.00000000E+00  0.00000000E+00  0.00000000E+00
  0.00000000E+00  0.00000000E+00  0.00000000E+00
  0.00000000E+00  0.00000000E+00  0.00000000E+00
