Cs2 Hf1 Cl6                             
   1.0000000000000000     
     0.0000000000000000    5.3520792005511035    5.3520792005511035
     5.3520792005511035   -0.0000000000000000    5.3520792005511035
     5.3520792005511035    5.3520792005511035   -0.0000000000000000
   Cs   Zr   Cl
     2     1     6
Direct
  0.2500000000000000  0.2500000000000000  0.2500000000000000
  0.7500000000000000  0.7500000000000000  0.7500000000000000
  0.0000000000000000  0.0000000000000000  0.0000000000000000
  0.7692669725475874  0.2307330274524126  0.2307330274524126
  0.2307330274524126  0.7692669725475874  0.7692669725475874
  0.2307330274524126  0.7692669725475874  0.2307330274524126
  0.7692669725475874  0.2307330274524126  0.7692669725475874
  0.2307330274524126  0.2307330274524126  0.7692669725475874
  0.7692669725475874  0.7692669725475874  0.2307330274524126

  0.00000000E+00  0.00000000E+00  0.00000000E+00
  0.00000000E+00  0.00000000E+00  0.00000000E+00
  0.00000000E+00  0.00000000E+00  0.00000000E+00
  0.00000000E+00  0.00000000E+00  0.00000000E+00
  0.00000000E+00  0.00000000E+00  0.00000000E+00
  0.00000000E+00  0.00000000E+00  0.00000000E+00
  0.00000000E+00  0.00000000E+00  0.00000000E+00
  0.00000000E+00  0.00000000E+00  0.00000000E+00
  0.00000000E+00  0.00000000E+00  0.00000000E+00
