Cs2 Hf1 Cl6                             
   1.0000000000000000     
    -0.0000000000000000    5.2458195428212564    5.2458195428212564
     5.2458195428212564   -0.0000000000000000    5.2458195428212564
     5.2458195428212564    5.2458195428212564    0.0000000000000000
   Rb   Te   Cl
     2     1     6
Direct
  0.2500000000000000  0.2500000000000000  0.2500000000000000
  0.7500000000000000  0.7500000000000000  0.7500000000000000
  0.0000000000000000  0.0000000000000000 -0.0000000000000000
  0.7589161449873980  0.2410838550126019  0.2410838550126019
  0.2410838550126019  0.7589161449873980  0.7589161449873980
  0.2410838550126019  0.7589161449873980  0.2410838550126019
  0.7589161449873980  0.2410838550126019  0.7589161449873980
  0.2410838550126019  0.2410838550126019  0.7589161449873980
  0.7589161449873980  0.7589161449873980  0.2410838550126019

  0.00000000E+00  0.00000000E+00  0.00000000E+00
  0.00000000E+00  0.00000000E+00  0.00000000E+00
  0.00000000E+00  0.00000000E+00  0.00000000E+00
  0.00000000E+00  0.00000000E+00  0.00000000E+00
  0.00000000E+00  0.00000000E+00  0.00000000E+00
  0.00000000E+00  0.00000000E+00  0.00000000E+00
  0.00000000E+00  0.00000000E+00  0.00000000E+00
  0.00000000E+00  0.00000000E+00  0.00000000E+00
  0.00000000E+00  0.00000000E+00  0.00000000E+00
