Cs2 Hf1 Cl6                             
   1.0000000000000000     
    -0.0000000000000000    5.3333065759230891    5.3333065759230891
     5.3333065759230891   -0.0000000000000000    5.3333065759230891
     5.3333065759230891    5.3333065759230891    0.0000000000000000
   Cs   Hf   Cl
     2     1     6
Direct
  0.2500000000000000  0.2500000000000000  0.2500000000000000
  0.7500000000000000  0.7500000000000000  0.7500000000000000
  0.0000000000000000  0.0000000000000000  0.0000000000000000
  0.7707749233066741  0.2292250766933260  0.2292250766933260
  0.2292250766933260  0.7707749233066741  0.7707749233066741
  0.2292250766933260  0.7707749233066741  0.2292250766933260
  0.7707749233066741  0.2292250766933260  0.7707749233066741
  0.2292250766933260  0.2292250766933260  0.7707749233066741
  0.7707749233066741  0.7707749233066741  0.2292250766933260

  0.00000000E+00  0.00000000E+00  0.00000000E+00
  0.00000000E+00  0.00000000E+00  0.00000000E+00
  0.00000000E+00  0.00000000E+00  0.00000000E+00
  0.00000000E+00  0.00000000E+00  0.00000000E+00
  0.00000000E+00  0.00000000E+00  0.00000000E+00
  0.00000000E+00  0.00000000E+00  0.00000000E+00
  0.00000000E+00  0.00000000E+00  0.00000000E+00
  0.00000000E+00  0.00000000E+00  0.00000000E+00
  0.00000000E+00  0.00000000E+00  0.00000000E+00
